p cnf 8483 12383
1 4 9 15 23 32 43 58 76 96 126 159 195 239 329 428 548 713 911 1241 1681 2176 0
2 5 10 16 24 33 44 59 77 97 127 160 196 240 330 429 549 714 912 1242 1682 2177 0
3 6 11 17 25 34 45 60 78 98 128 161 197 241 331 430 550 715 913 1243 1683 2178 0
1 7 12 18 26 35 46 61 79 99 129 162 198 242 332 431 551 716 914 1244 1684 2179 0
2 8 13 19 27 36 47 62 80 100 130 163 199 243 333 432 552 717 915 1245 1685 2180 0
3 4 14 20 28 37 48 63 81 101 131 164 200 244 334 433 553 718 916 1246 1686 2181 0
1 5 9 21 29 38 49 64 82 102 132 165 201 245 335 434 554 719 917 1247 1687 2182 0
2 6 10 22 30 39 50 65 83 103 133 166 202 246 336 435 555 720 918 1248 1688 2183 0
3 7 11 15 31 40 51 66 84 104 134 167 203 247 337 436 556 721 919 1249 1689 2184 0
1 8 12 16 23 41 52 67 85 105 135 168 204 248 338 437 557 722 920 1250 1690 2185 0
2 4 13 17 24 42 53 68 86 106 136 169 205 249 339 438 558 723 921 1251 1691 2186 0
3 5 14 18 25 32 54 69 87 107 137 170 206 250 340 439 559 724 922 1252 1692 2187 0
1 6 9 19 26 33 55 70 88 108 138 171 207 251 341 440 560 725 923 1253 1693 2188 0
2 7 10 20 27 34 56 71 89 109 139 172 208 252 342 441 561 726 924 1254 1694 2189 0
3 8 11 21 28 35 57 72 90 110 140 173 209 253 343 442 562 727 925 1255 1695 2190 0
1 4 12 22 29 36 43 73 91 111 141 174 210 254 344 443 563 728 926 1256 1696 2191 0
2 5 13 15 30 37 44 74 92 112 142 175 211 255 345 444 564 729 927 1257 1697 2192 0
3 6 14 16 31 38 45 75 93 113 143 176 212 256 346 445 565 730 928 1258 1698 2193 0
1 7 9 17 23 39 46 58 94 114 144 177 213 257 347 446 566 731 929 1259 1699 2194 0
2 8 10 18 24 40 47 59 95 115 145 178 214 258 348 447 567 732 930 1260 1700 2195 0
3 4 11 19 25 41 48 60 76 116 146 179 215 259 349 448 568 733 931 1261 1701 2196 0
1 5 12 20 26 42 49 61 77 117 147 180 216 260 350 449 569 734 932 1262 1702 2197 0
2 6 13 21 27 32 50 62 78 118 148 181 217 261 351 450 570 735 933 1263 1703 2198 0
3 7 14 22 28 33 51 63 79 119 149 182 218 262 352 451 571 736 934 1264 1704 2199 0
1 8 9 15 29 34 52 64 80 120 150 183 219 263 353 452 572 737 935 1265 1705 2200 0
2 4 10 16 30 35 53 65 81 121 151 184 220 264 354 453 573 738 936 1266 1706 2201 0
3 5 11 17 31 36 54 66 82 122 152 185 221 265 355 454 574 739 937 1267 1707 2202 0
1 6 12 18 23 37 55 67 83 123 153 186 222 266 356 455 575 740 938 1268 1708 2203 0
2 7 13 19 24 38 56 68 84 124 154 187 223 267 357 456 576 741 939 1269 1709 2204 0
3 8 14 20 25 39 57 69 85 125 155 188 224 268 358 457 577 742 940 1270 1710 2205 0
1 4 9 21 26 40 43 70 86 96 156 189 225 269 359 458 578 743 941 1271 1711 2206 0
2 5 10 22 27 41 44 71 87 97 157 190 226 270 360 459 579 744 942 1272 1712 2207 0
3 6 11 15 28 42 45 72 88 98 158 191 227 271 361 460 580 745 943 1273 1713 2208 0
1 7 12 16 29 32 46 73 89 99 126 192 228 272 362 461 581 746 944 1274 1714 2209 0
2 8 13 17 30 33 47 74 90 100 127 193 229 273 363 462 582 747 945 1275 1715 2210 0
3 4 14 18 31 34 48 75 91 101 128 194 230 274 364 463 583 748 946 1276 1716 2211 0
1 5 9 19 23 35 49 58 92 102 129 159 231 275 365 464 584 749 947 1277 1717 2212 0
2 6 10 20 24 36 50 59 93 103 130 160 232 276 366 465 585 750 948 1278 1718 2213 0
3 7 11 21 25 37 51 60 94 104 131 161 233 277 367 466 586 751 949 1279 1719 2214 0
1 8 12 22 26 38 52 61 95 105 132 162 234 278 368 467 587 752 950 1280 1720 2215 0
2 4 13 15 27 39 53 62 76 106 133 163 235 279 369 468 588 753 951 1281 1721 2216 0
3 5 14 16 28 40 54 63 77 107 134 164 236 280 370 469 589 754 952 1282 1722 2217 0
1 6 9 17 29 41 55 64 78 108 135 165 237 281 371 470 590 755 953 1283 1723 2218 0
2 7 10 18 30 42 56 65 79 109 136 166 238 282 372 471 591 756 954 1284 1724 2219 0
3 8 11 19 31 32 57 66 80 110 137 167 195 283 373 472 592 757 955 1285 1725 2220 0
1 4 12 20 23 33 43 67 81 111 138 168 196 284 374 473 593 758 956 1286 1726 2221 0
2 5 13 21 24 34 44 68 82 112 139 169 197 285 375 474 594 759 957 1287 1727 2222 0
3 6 14 22 25 35 45 69 83 113 140 170 198 286 376 475 595 760 958 1288 1728 2223 0
1 7 9 15 26 36 46 70 84 114 141 171 199 287 377 476 596 761 959 1289 1729 2224 0
2 8 10 16 27 37 47 71 85 115 142 172 200 288 378 477 597 762 960 1290 1730 2225 0
3 4 11 17 28 38 48 72 86 116 143 173 201 289 379 478 598 763 961 1291 1731 2226 0
1 5 12 18 29 39 49 73 87 117 144 174 202 290 380 479 599 764 962 1292 1732 2227 0
2 6 13 19 30 40 50 74 88 118 145 175 203 291 381 480 600 765 963 1293 1733 2228 0
3 7 14 20 31 41 51 75 89 119 146 176 204 292 382 481 601 766 964 1294 1734 2229 0
1 8 9 21 23 42 52 58 90 120 147 177 205 293 383 482 602 767 965 1295 1735 2230 0
2 4 10 22 24 32 53 59 91 121 148 178 206 294 384 483 603 768 966 1296 1736 2231 0
3 5 11 15 25 33 54 60 92 122 149 179 207 295 385 484 604 769 967 1297 1737 2232 0
1 6 12 16 26 34 55 61 93 123 150 180 208 296 386 485 605 770 968 1298 1738 2233 0
2 7 13 17 27 35 56 62 94 124 151 181 209 297 387 486 606 771 969 1299 1739 2234 0
3 8 14 18 28 36 57 63 95 125 152 182 210 298 388 487 607 772 970 1300 1740 2235 0
1 4 9 19 29 37 43 64 76 96 153 183 211 299 389 488 608 773 971 1301 1741 2236 0
2 5 10 20 30 38 44 65 77 97 154 184 212 300 390 489 609 774 972 1302 1742 2237 0
3 6 11 21 31 39 45 66 78 98 155 185 213 301 391 490 610 775 973 1303 1743 2238 0
1 7 12 22 23 40 46 67 79 99 156 186 214 302 392 491 611 776 974 1304 1744 2239 0
2 8 13 15 24 41 47 68 80 100 157 187 215 303 393 492 612 777 975 1305 1745 2240 0
3 4 14 16 25 42 48 69 81 101 158 188 216 304 394 493 613 778 976 1306 1746 2241 0
1 5 9 17 26 32 49 70 82 102 126 189 217 305 395 494 614 779 977 1307 1747 2242 0
2 6 10 18 27 33 50 71 83 103 127 190 218 306 396 495 615 780 978 1308 1748 2243 0
3 7 11 19 28 34 51 72 84 104 128 191 219 307 397 496 616 781 979 1309 1749 2244 0
1 8 12 20 29 35 52 73 85 105 129 192 220 308 398 497 617 782 980 1310 1750 2245 0
2 4 13 21 30 36 53 74 86 106 130 193 221 309 399 498 618 783 981 1311 1751 2246 0
3 5 14 22 31 37 54 75 87 107 131 194 222 310 400 499 619 784 982 1312 1752 2247 0
1 6 9 15 23 38 55 58 88 108 132 159 223 311 401 500 620 785 983 1313 1753 2248 0
2 7 10 16 24 39 56 59 89 109 133 160 224 312 402 501 621 786 984 1314 1754 2249 0
3 8 11 17 25 40 57 60 90 110 134 161 225 313 403 502 622 787 985 1315 1755 2250 0
1 4 12 18 26 41 43 61 91 111 135 162 226 314 404 503 623 788 986 1316 1756 2251 0
2 5 13 19 27 42 44 62 92 112 136 163 227 315 405 504 624 789 987 1317 1757 2252 0
3 6 14 20 28 32 45 63 93 113 137 164 228 316 406 505 625 790 988 1318 1758 2253 0
1 7 9 21 29 33 46 64 94 114 138 165 229 317 407 506 626 791 989 1319 1759 2254 0
2 8 10 22 30 34 47 65 95 115 139 166 230 318 408 507 627 792 990 1320 1760 2255 0
3 4 11 15 31 35 48 66 76 116 140 167 231 319 409 508 628 793 991 1321 1761 2256 0
1 5 12 16 23 36 49 67 77 117 141 168 232 320 410 509 629 794 992 1322 1762 2257 0
2 6 13 17 24 37 50 68 78 118 142 169 233 321 411 510 630 795 993 1323 1763 2258 0
3 7 14 18 25 38 51 69 79 119 143 170 234 322 412 511 631 796 994 1324 1764 2259 0
1 8 9 19 26 39 52 70 80 120 144 171 235 323 413 512 632 797 995 1325 1765 2260 0
2 4 10 20 27 40 53 71 81 121 145 172 236 324 414 513 633 798 996 1326 1766 2261 0
3 5 11 21 28 41 54 72 82 122 146 173 237 325 415 514 634 799 997 1327 1767 2262 0
1 6 12 22 29 42 55 73 83 123 147 174 238 326 416 515 635 800 998 1328 1768 2263 0
2 7 13 15 30 32 56 74 84 124 148 175 195 327 417 516 636 801 999 1329 1769 2264 0
3 8 14 16 31 33 57 75 85 125 149 176 196 328 418 517 637 802 1000 1330 1770 2265 0
1 4 9 17 23 34 43 58 86 96 150 177 197 239 419 518 638 803 1001 1331 1771 2266 0
2 5 10 18 24 35 44 59 87 97 151 178 198 240 420 519 639 804 1002 1332 1772 2267 0
3 6 11 19 25 36 45 60 88 98 152 179 199 241 421 520 640 805 1003 1333 1773 2268 0
1 7 12 20 26 37 46 61 89 99 153 180 200 242 422 521 641 806 1004 1334 1774 2269 0
2 8 13 21 27 38 47 62 90 100 154 181 201 243 423 522 642 807 1005 1335 1775 2270 0
3 4 14 22 28 39 48 63 91 101 155 182 202 244 424 523 643 808 1006 1336 1776 2271 0
1 5 9 15 29 40 49 64 92 102 156 183 203 245 425 524 644 809 1007 1337 1777 2272 0
2 6 10 16 30 41 50 65 93 103 157 184 204 246 426 525 645 810 1008 1338 1778 2273 0
3 7 11 17 31 42 51 66 94 104 158 185 205 247 427 526 646 811 1009 1339 1779 2274 0
1 8 12 18 23 32 52 67 95 105 126 186 206 248 329 527 647 812 1010 1340 1780 2275 0
2 4 13 19 24 33 53 68 76 106 127 187 207 249 330 528 648 813 1011 1341 1781 2276 0
3 5 14 20 25 34 54 69 77 107 128 188 208 250 331 529 649 814 1012 1342 1782 2277 0
1 6 9 21 26 35 55 70 78 108 129 189 209 251 332 530 650 815 1013 1343 1783 2278 0
2 7 10 22 27 36 56 71 79 109 130 190 210 252 333 531 651 816 1014 1344 1784 2279 0
3 8 11 15 28 37 57 72 80 110 131 191 211 253 334 532 652 817 1015 1345 1785 2280 0
1 4 12 16 29 38 43 73 81 111 132 192 212 254 335 533 653 818 1016 1346 1786 2281 0
2 5 13 17 30 39 44 74 82 112 133 193 213 255 336 534 654 819 1017 1347 1787 2282 0
3 6 14 18 31 40 45 75 83 113 134 194 214 256 337 535 655 820 1018 1348 1788 2283 0
1 7 9 19 23 41 46 58 84 114 135 159 215 257 338 536 656 821 1019 1349 1789 2284 0
2 8 10 20 24 42 47 59 85 115 136 160 216 258 339 537 657 822 1020 1350 1790 2285 0
3 4 11 21 25 32 48 60 86 116 137 161 217 259 340 538 658 823 1021 1351 1791 2286 0
1 5 12 22 26 33 49 61 87 117 138 162 218 260 341 539 659 824 1022 1352 1792 2287 0
2 6 13 15 27 34 50 62 88 118 139 163 219 261 342 540 660 825 1023 1353 1793 2288 0
3 7 14 16 28 35 51 63 89 119 140 164 220 262 343 541 661 826 1024 1354 1794 2289 0
1 8 9 17 29 36 52 64 90 120 141 165 221 263 344 542 662 827 1025 1355 1795 2290 0
2 4 10 18 30 37 53 65 91 121 142 166 222 264 345 543 663 828 1026 1356 1796 2291 0
3 5 11 19 31 38 54 66 92 122 143 167 223 265 346 544 664 829 1027 1357 1797 2292 0
1 6 12 20 23 39 55 67 93 123 144 168 224 266 347 545 665 830 1028 1358 1798 2293 0
2 7 13 21 24 40 56 68 94 124 145 169 225 267 348 546 666 831 1029 1359 1799 2294 0
3 8 14 22 25 41 57 69 95 125 146 170 226 268 349 547 667 832 1030 1360 1800 2295 0
1 4 9 15 26 42 43 70 76 96 147 171 227 269 350 428 668 833 1031 1361 1801 2296 0
2 5 10 16 27 32 44 71 77 97 148 172 228 270 351 429 669 834 1032 1362 1802 2297 0
3 6 11 17 28 33 45 72 78 98 149 173 229 271 352 430 670 835 1033 1363 1803 2298 0
1 7 12 18 29 34 46 73 79 99 150 174 230 272 353 431 671 836 1034 1364 1804 2299 0
2 8 13 19 30 35 47 74 80 100 151 175 231 273 354 432 672 837 1035 1365 1805 2300 0
3 4 14 20 31 36 48 75 81 101 152 176 232 274 355 433 673 838 1036 1366 1806 2301 0
1 5 9 21 23 37 49 58 82 102 153 177 233 275 356 434 674 839 1037 1367 1807 2302 0
2 6 10 22 24 38 50 59 83 103 154 178 234 276 357 435 675 840 1038 1368 1808 2303 0
3 7 11 15 25 39 51 60 84 104 155 179 235 277 358 436 676 841 1039 1369 1809 2304 0
1 8 12 16 26 40 52 61 85 105 156 180 236 278 359 437 677 842 1040 1370 1810 2305 0
2 4 13 17 27 41 53 62 86 106 157 181 237 279 360 438 678 843 1041 1371 1811 2306 0
3 5 14 18 28 42 54 63 87 107 158 182 238 280 361 439 679 844 1042 1372 1812 2307 0
1 6 9 19 29 32 55 64 88 108 126 183 195 281 362 440 680 845 1043 1373 1813 2308 0
2 7 10 20 30 33 56 65 89 109 127 184 196 282 363 441 681 846 1044 1374 1814 2309 0
3 8 11 21 31 34 57 66 90 110 128 185 197 283 364 442 682 847 1045 1375 1815 2310 0
1 4 12 22 23 35 43 67 91 111 129 186 198 284 365 443 683 848 1046 1376 1816 2311 0
2 5 13 15 24 36 44 68 92 112 130 187 199 285 366 444 684 849 1047 1377 1817 2312 0
3 6 14 16 25 37 45 69 93 113 131 188 200 286 367 445 685 850 1048 1378 1818 2313 0
1 7 9 17 26 38 46 70 94 114 132 189 201 287 368 446 686 851 1049 1379 1819 2314 0
2 8 10 18 27 39 47 71 95 115 133 190 202 288 369 447 687 852 1050 1380 1820 2315 0
3 4 11 19 28 40 48 72 76 116 134 191 203 289 370 448 688 853 1051 1381 1821 2316 0
1 5 12 20 29 41 49 73 77 117 135 192 204 290 371 449 689 854 1052 1382 1822 2317 0
2 6 13 21 30 42 50 74 78 118 136 193 205 291 372 450 690 855 1053 1383 1823 2318 0
3 7 14 22 31 32 51 75 79 119 137 194 206 292 373 451 691 856 1054 1384 1824 2319 0
1 8 9 15 23 33 52 58 80 120 138 159 207 293 374 452 692 857 1055 1385 1825 2320 0
2 4 10 16 24 34 53 59 81 121 139 160 208 294 375 453 693 858 1056 1386 1826 2321 0
3 5 11 17 25 35 54 60 82 122 140 161 209 295 376 454 694 859 1057 1387 1827 2322 0
1 6 12 18 26 36 55 61 83 123 141 162 210 296 377 455 695 860 1058 1388 1828 2323 0
2 7 13 19 27 37 56 62 84 124 142 163 211 297 378 456 696 861 1059 1389 1829 2324 0
3 8 14 20 28 38 57 63 85 125 143 164 212 298 379 457 697 862 1060 1390 1830 2325 0
1 4 9 21 29 39 43 64 86 96 144 165 213 299 380 458 698 863 1061 1391 1831 2326 0
2 5 10 22 30 40 44 65 87 97 145 166 214 300 381 459 699 864 1062 1392 1832 2327 0
3 6 11 15 31 41 45 66 88 98 146 167 215 301 382 460 700 865 1063 1393 1833 2328 0
1 7 12 16 23 42 46 67 89 99 147 168 216 302 383 461 701 866 1064 1394 1834 2329 0
2 8 13 17 24 32 47 68 90 100 148 169 217 303 384 462 702 867 1065 1395 1835 2330 0
3 4 14 18 25 33 48 69 91 101 149 170 218 304 385 463 703 868 1066 1396 1836 2331 0
1 5 9 19 26 34 49 70 92 102 150 171 219 305 386 464 704 869 1067 1397 1837 2332 0
2 6 10 20 27 35 50 71 93 103 151 172 220 306 387 465 705 870 1068 1398 1838 2333 0
3 7 11 21 28 36 51 72 94 104 152 173 221 307 388 466 706 871 1069 1399 1839 2334 0
1 8 12 22 29 37 52 73 95 105 153 174 222 308 389 467 707 872 1070 1400 1840 2335 0
2 4 13 15 30 38 53 74 76 106 154 175 223 309 390 468 708 873 1071 1401 1841 2336 0
3 5 14 16 31 39 54 75 77 107 155 176 224 310 391 469 709 874 1072 1402 1842 2337 0
1 6 9 17 23 40 55 58 78 108 156 177 225 311 392 470 710 875 1073 1403 1843 2338 0
2 7 10 18 24 41 56 59 79 109 157 178 226 312 393 471 711 876 1074 1404 1844 2339 0
3 8 11 19 25 42 57 60 80 110 158 179 227 313 394 472 712 877 1075 1405 1845 2340 0
1 4 12 20 26 32 43 61 81 111 126 180 228 314 395 473 548 878 1076 1406 1846 2341 0
2 5 13 21 27 33 44 62 82 112 127 181 229 315 396 474 549 879 1077 1407 1847 2342 0
3 6 14 22 28 34 45 63 83 113 128 182 230 316 397 475 550 880 1078 1408 1848 2343 0
1 7 9 15 29 35 46 64 84 114 129 183 231 317 398 476 551 881 1079 1409 1849 2344 0
2 8 10 16 30 36 47 65 85 115 130 184 232 318 399 477 552 882 1080 1410 1850 2345 0
3 4 11 17 31 37 48 66 86 116 131 185 233 319 400 478 553 883 1081 1411 1851 2346 0
1 5 12 18 23 38 49 67 87 117 132 186 234 320 401 479 554 884 1082 1412 1852 2347 0
2 6 13 19 24 39 50 68 88 118 133 187 235 321 402 480 555 885 1083 1413 1853 2348 0
3 7 14 20 25 40 51 69 89 119 134 188 236 322 403 481 556 886 1084 1414 1854 2349 0
1 8 9 21 26 41 52 70 90 120 135 189 237 323 404 482 557 887 1085 1415 1855 2350 0
2 4 10 22 27 42 53 71 91 121 136 190 238 324 405 483 558 888 1086 1416 1856 2351 0
3 5 11 15 28 32 54 72 92 122 137 191 195 325 406 484 559 889 1087 1417 1857 2352 0
1 6 12 16 29 33 55 73 93 123 138 192 196 326 407 485 560 890 1088 1418 1858 2353 0
2 7 13 17 30 34 56 74 94 124 139 193 197 327 408 486 561 891 1089 1419 1859 2354 0
3 8 14 18 31 35 57 75 95 125 140 194 198 328 409 487 562 892 1090 1420 1860 2355 0
1 4 9 19 23 36 43 58 76 96 141 159 199 239 410 488 563 893 1091 1421 1861 2356 0
2 5 10 20 24 37 44 59 77 97 142 160 200 240 411 489 564 894 1092 1422 1862 2357 0
3 6 11 21 25 38 45 60 78 98 143 161 201 241 412 490 565 895 1093 1423 1863 2358 0
1 7 12 22 26 39 46 61 79 99 144 162 202 242 413 491 566 896 1094 1424 1864 2359 0
2 8 13 15 27 40 47 62 80 100 145 163 203 243 414 492 567 897 1095 1425 1865 2360 0
3 4 14 16 28 41 48 63 81 101 146 164 204 244 415 493 568 898 1096 1426 1866 2361 0
1 5 9 17 29 42 49 64 82 102 147 165 205 245 416 494 569 899 1097 1427 1867 2362 0
2 6 10 18 30 32 50 65 83 103 148 166 206 246 417 495 570 900 1098 1428 1868 2363 0
3 7 11 19 31 33 51 66 84 104 149 167 207 247 418 496 571 901 1099 1429 1869 2364 0
1 8 12 20 23 34 52 67 85 105 150 168 208 248 419 497 572 902 1100 1430 1870 2365 0
2 4 13 21 24 35 53 68 86 106 151 169 209 249 420 498 573 903 1101 1431 1871 2366 0
3 5 14 22 25 36 54 69 87 107 152 170 210 250 421 499 574 904 1102 1432 1872 2367 0
1 6 9 15 26 37 55 70 88 108 153 171 211 251 422 500 575 905 1103 1433 1873 2368 0
2 7 10 16 27 38 56 71 89 109 154 172 212 252 423 501 576 906 1104 1434 1874 2369 0
3 8 11 17 28 39 57 72 90 110 155 173 213 253 424 502 577 907 1105 1435 1875 2370 0
1 4 12 18 29 40 43 73 91 111 156 174 214 254 425 503 578 908 1106 1436 1876 2371 0
2 5 13 19 30 41 44 74 92 112 157 175 215 255 426 504 579 909 1107 1437 1877 2372 0
3 6 14 20 31 42 45 75 93 113 158 176 216 256 427 505 580 910 1108 1438 1878 2373 0
1 7 9 21 23 32 46 58 94 114 126 177 217 257 329 506 581 713 1109 1439 1879 2374 0
2 8 10 22 24 33 47 59 95 115 127 178 218 258 330 507 582 714 1110 1440 1880 2375 0
3 4 11 15 25 34 48 60 76 116 128 179 219 259 331 508 583 715 1111 1441 1881 2376 0
1 5 12 16 26 35 49 61 77 117 129 180 220 260 332 509 584 716 1112 1442 1882 2377 0
2 6 13 17 27 36 50 62 78 118 130 181 221 261 333 510 585 717 1113 1443 1883 2378 0
3 7 14 18 28 37 51 63 79 119 131 182 222 262 334 511 586 718 1114 1444 1884 2379 0
1 8 9 19 29 38 52 64 80 120 132 183 223 263 335 512 587 719 1115 1445 1885 2380 0
2 4 10 20 30 39 53 65 81 121 133 184 224 264 336 513 588 720 1116 1446 1886 2381 0
3 5 11 21 31 40 54 66 82 122 134 185 225 265 337 514 589 721 1117 1447 1887 2382 0
1 6 12 22 23 41 55 67 83 123 135 186 226 266 338 515 590 722 1118 1448 1888 2383 0
2 7 13 15 24 42 56 68 84 124 136 187 227 267 339 516 591 723 1119 1449 1889 2384 0
3 8 14 16 25 32 57 69 85 125 137 188 228 268 340 517 592 724 1120 1450 1890 2385 0
1 4 9 17 26 33 43 70 86 96 138 189 229 269 341 518 593 725 1121 1451 1891 2386 0
2 5 10 18 27 34 44 71 87 97 139 190 230 270 342 519 594 726 1122 1452 1892 2387 0
3 6 11 19 28 35 45 72 88 98 140 191 231 271 343 520 595 727 1123 1453 1893 2388 0
1 7 12 20 29 36 46 73 89 99 141 192 232 272 344 521 596 728 1124 1454 1894 2389 0
2 8 13 21 30 37 47 74 90 100 142 193 233 273 345 522 597 729 1125 1455 1895 2390 0
3 4 14 22 31 38 48 75 91 101 143 194 234 274 346 523 598 730 1126 1456 1896 2391 0
1 5 9 15 23 39 49 58 92 102 144 159 235 275 347 524 599 731 1127 1457 1897 2392 0
2 6 10 16 24 40 50 59 93 103 145 160 236 276 348 525 600 732 1128 1458 1898 2393 0
3 7 11 17 25 41 51 60 94 104 146 161 237 277 349 526 601 733 1129 1459 1899 2394 0
1 8 12 18 26 42 52 61 95 105 147 162 238 278 350 527 602 734 1130 1460 1900 2395 0
2 4 13 19 27 32 53 62 76 106 148 163 195 279 351 528 603 735 1131 1461 1901 2396 0
3 5 14 20 28 33 54 63 77 107 149 164 196 280 352 529 604 736 1132 1462 1902 2397 0
1 6 9 21 29 34 55 64 78 108 150 165 197 281 353 530 605 737 1133 1463 1903 2398 0
2 7 10 22 30 35 56 65 79 109 151 166 198 282 354 531 606 738 1134 1464 1904 2399 0
3 8 11 15 31 36 57 66 80 110 152 167 199 283 355 532 607 739 1135 1465 1905 2400 0
1 4 12 16 23 37 43 67 81 111 153 168 200 284 356 533 608 740 1136 1466 1906 2401 0
2 5 13 17 24 38 44 68 82 112 154 169 201 285 357 534 609 741 1137 1467 1907 2402 0
3 6 14 18 25 39 45 69 83 113 155 170 202 286 358 535 610 742 1138 1468 1908 2403 0
1 7 9 19 26 40 46 70 84 114 156 171 203 287 359 536 611 743 1139 1469 1909 2404 0
2 8 10 20 27 41 47 71 85 115 157 172 204 288 360 537 612 744 1140 1470 1910 2405 0
3 4 11 21 28 42 48 72 86 116 158 173 205 289 361 538 613 745 1141 1471 1911 2406 0
1 5 12 22 29 32 49 73 87 117 126 174 206 290 362 539 614 746 1142 1472 1912 2407 0
2 6 13 15 30 33 50 74 88 118 127 175 207 291 363 540 615 747 1143 1473 1913 2408 0
3 7 14 16 31 34 51 75 89 119 128 176 208 292 364 541 616 748 1144 1474 1914 2409 0
1 8 9 17 23 35 52 58 90 120 129 177 209 293 365 542 617 749 1145 1475 1915 2410 0
2 4 10 18 24 36 53 59 91 121 130 178 210 294 366 543 618 750 1146 1476 1916 2411 0
3 5 11 19 25 37 54 60 92 122 131 179 211 295 367 544 619 751 1147 1477 1917 2412 0
1 6 12 20 26 38 55 61 93 123 132 180 212 296 368 545 620 752 1148 1478 1918 2413 0
2 7 13 21 27 39 56 62 94 124 133 181 213 297 369 546 621 753 1149 1479 1919 2414 0
3 8 14 22 28 40 57 63 95 125 134 182 214 298 370 547 622 754 1150 1480 1920 2415 0
1 4 9 15 29 41 43 64 76 96 135 183 215 299 371 428 623 755 1151 1481 1921 2416 0
2 5 10 16 30 42 44 65 77 97 136 184 216 300 372 429 624 756 1152 1482 1922 2417 0
3 6 11 17 31 32 45 66 78 98 137 185 217 301 373 430 625 757 1153 1483 1923 2418 0
1 7 12 18 23 33 46 67 79 99 138 186 218 302 374 431 626 758 1154 1484 1924 2419 0
2 8 13 19 24 34 47 68 80 100 139 187 219 303 375 432 627 759 1155 1485 1925 2420 0
3 4 14 20 25 35 48 69 81 101 140 188 220 304 376 433 628 760 1156 1486 1926 2421 0
1 5 9 21 26 36 49 70 82 102 141 189 221 305 377 434 629 761 1157 1487 1927 2422 0
2 6 10 22 27 37 50 71 83 103 142 190 222 306 378 435 630 762 1158 1488 1928 2423 0
3 7 11 15 28 38 51 72 84 104 143 191 223 307 379 436 631 763 1159 1489 1929 2424 0
1 8 12 16 29 39 52 73 85 105 144 192 224 308 380 437 632 764 1160 1490 1930 2425 0
2 4 13 17 30 40 53 74 86 106 145 193 225 309 381 438 633 765 1161 1491 1931 2426 0
3 5 14 18 31 41 54 75 87 107 146 194 226 310 382 439 634 766 1162 1492 1932 2427 0
1 6 9 19 23 42 55 58 88 108 147 159 227 311 383 440 635 767 1163 1493 1933 2428 0
2 7 10 20 24 32 56 59 89 109 148 160 228 312 384 441 636 768 1164 1494 1934 2429 0
3 8 11 21 25 33 57 60 90 110 149 161 229 313 385 442 637 769 1165 1495 1935 2430 0
1 4 12 22 26 34 43 61 91 111 150 162 230 314 386 443 638 770 1166 1496 1936 2431 0
2 5 13 15 27 35 44 62 92 112 151 163 231 315 387 444 639 771 1167 1497 1937 2432 0
3 6 14 16 28 36 45 63 93 113 152 164 232 316 388 445 640 772 1168 1498 1938 2433 0
1 7 9 17 29 37 46 64 94 114 153 165 233 317 389 446 641 773 1169 1499 1939 2434 0
2 8 10 18 30 38 47 65 95 115 154 166 234 318 390 447 642 774 1170 1500 1940 2435 0
3 4 11 19 31 39 48 66 76 116 155 167 235 319 391 448 643 775 1171 1501 1941 2436 0
1 5 12 20 23 40 49 67 77 117 156 168 236 320 392 449 644 776 1172 1502 1942 2437 0
2 6 13 21 24 41 50 68 78 118 157 169 237 321 393 450 645 777 1173 1503 1943 2438 0
3 7 14 22 25 42 51 69 79 119 158 170 238 322 394 451 646 778 1174 1504 1944 2439 0
1 8 9 15 26 32 52 70 80 120 126 171 195 323 395 452 647 779 1175 1505 1945 2440 0
2 4 10 16 27 33 53 71 81 121 127 172 196 324 396 453 648 780 1176 1506 1946 2441 0
3 5 11 17 28 34 54 72 82 122 128 173 197 325 397 454 649 781 1177 1507 1947 2442 0
1 6 12 18 29 35 55 73 83 123 129 174 198 326 398 455 650 782 1178 1508 1948 2443 0
2 7 13 19 30 36 56 74 84 124 130 175 199 327 399 456 651 783 1179 1509 1949 2444 0
3 8 14 20 31 37 57 75 85 125 131 176 200 328 400 457 652 784 1180 1510 1950 2445 0
1 4 9 21 23 38 43 58 86 96 132 177 201 239 401 458 653 785 1181 1511 1951 2446 0
2 5 10 22 24 39 44 59 87 97 133 178 202 240 402 459 654 786 1182 1512 1952 2447 0
3 6 11 15 25 40 45 60 88 98 134 179 203 241 403 460 655 787 1183 1513 1953 2448 0
1 7 12 16 26 41 46 61 89 99 135 180 204 242 404 461 656 788 1184 1514 1954 2449 0
2 8 13 17 27 42 47 62 90 100 136 181 205 243 405 462 657 789 1185 1515 1955 2450 0
3 4 14 18 28 32 48 63 91 101 137 182 206 244 406 463 658 790 1186 1516 1956 2451 0
1 5 9 19 29 33 49 64 92 102 138 183 207 245 407 464 659 791 1187 1517 1957 2452 0
2 6 10 20 30 34 50 65 93 103 139 184 208 246 408 465 660 792 1188 1518 1958 2453 0
3 7 11 21 31 35 51 66 94 104 140 185 209 247 409 466 661 793 1189 1519 1959 2454 0
1 8 12 22 23 36 52 67 95 105 141 186 210 248 410 467 662 794 1190 1520 1960 2455 0
2 4 13 15 24 37 53 68 76 106 142 187 211 249 411 468 663 795 1191 1521 1961 2456 0
3 5 14 16 25 38 54 69 77 107 143 188 212 250 412 469 664 796 1192 1522 1962 2457 0
1 6 9 17 26 39 55 70 78 108 144 189 213 251 413 470 665 797 1193 1523 1963 2458 0
2 7 10 18 27 40 56 71 79 109 145 190 214 252 414 471 666 798 1194 1524 1964 2459 0
3 8 11 19 28 41 57 72 80 110 146 191 215 253 415 472 667 799 1195 1525 1965 2460 0
1 4 12 20 29 42 43 73 81 111 147 192 216 254 416 473 668 800 1196 1526 1966 2461 0
2 5 13 21 30 32 44 74 82 112 148 193 217 255 417 474 669 801 1197 1527 1967 2462 0
3 6 14 22 31 33 45 75 83 113 149 194 218 256 418 475 670 802 1198 1528 1968 2463 0
1 7 9 15 23 34 46 58 84 114 150 159 219 257 419 476 671 803 1199 1529 1969 2464 0
2 8 10 16 24 35 47 59 85 115 151 160 220 258 420 477 672 804 1200 1530 1970 2465 0
3 4 11 17 25 36 48 60 86 116 152 161 221 259 421 478 673 805 1201 1531 1971 2466 0
1 5 12 18 26 37 49 61 87 117 153 162 222 260 422 479 674 806 1202 1532 1972 2467 0
2 6 13 19 27 38 50 62 88 118 154 163 223 261 423 480 675 807 1203 1533 1973 2468 0
3 7 14 20 28 39 51 63 89 119 155 164 224 262 424 481 676 808 1204 1534 1974 2469 0
1 8 9 21 29 40 52 64 90 120 156 165 225 263 425 482 677 809 1205 1535 1975 2470 0
2 4 10 22 30 41 53 65 91 121 157 166 226 264 426 483 678 810 1206 1536 1976 2471 0
3 5 11 15 31 42 54 66 92 122 158 167 227 265 427 484 679 811 1207 1537 1977 2472 0
1 6 12 16 23 32 55 67 93 123 126 168 228 266 329 485 680 812 1208 1538 1978 2473 0
2 7 13 17 24 33 56 68 94 124 127 169 229 267 330 486 681 813 1209 1539 1979 2474 0
3 8 14 18 25 34 57 69 95 125 128 170 230 268 331 487 682 814 1210 1540 1980 2475 0
1 4 9 19 26 35 43 70 76 96 129 171 231 269 332 488 683 815 1211 1541 1981 2476 0
2 5 10 20 27 36 44 71 77 97 130 172 232 270 333 489 684 816 1212 1542 1982 2477 0
3 6 11 21 28 37 45 72 78 98 131 173 233 271 334 490 685 817 1213 1543 1983 2478 0
1 7 12 22 29 38 46 73 79 99 132 174 234 272 335 491 686 818 1214 1544 1984 2479 0
2 8 13 15 30 39 47 74 80 100 133 175 235 273 336 492 687 819 1215 1545 1985 2480 0
3 4 14 16 31 40 48 75 81 101 134 176 236 274 337 493 688 820 1216 1546 1986 2481 0
1 5 9 17 23 41 49 58 82 102 135 177 237 275 338 494 689 821 1217 1547 1987 2482 0
2 6 10 18 24 42 50 59 83 103 136 178 238 276 339 495 690 822 1218 1548 1988 2483 0
3 7 11 19 25 32 51 60 84 104 137 179 195 277 340 496 691 823 1219 1549 1989 2484 0
1 8 12 20 26 33 52 61 85 105 138 180 196 278 341 497 692 824 1220 1550 1990 2485 0
2 4 13 21 27 34 53 62 86 106 139 181 197 279 342 498 693 825 1221 1551 1991 2486 0
3 5 14 22 28 35 54 63 87 107 140 182 198 280 343 499 694 826 1222 1552 1992 2487 0
1 6 9 15 29 36 55 64 88 108 141 183 199 281 344 500 695 827 1223 1553 1993 2488 0
2 7 10 16 30 37 56 65 89 109 142 184 200 282 345 501 696 828 1224 1554 1994 2489 0
3 8 11 17 31 38 57 66 90 110 143 185 201 283 346 502 697 829 1225 1555 1995 2490 0
1 4 12 18 23 39 43 67 91 111 144 186 202 284 347 503 698 830 1226 1556 1996 2491 0
2 5 13 19 24 40 44 68 92 112 145 187 203 285 348 504 699 831 1227 1557 1997 2492 0
3 6 14 20 25 41 45 69 93 113 146 188 204 286 349 505 700 832 1228 1558 1998 2493 0
1 7 9 21 26 42 46 70 94 114 147 189 205 287 350 506 701 833 1229 1559 1999 2494 0
2 8 10 22 27 32 47 71 95 115 148 190 206 288 351 507 702 834 1230 1560 2000 2495 0
3 4 11 15 28 33 48 72 76 116 149 191 207 289 352 508 703 835 1231 1561 2001 2496 0
1 5 12 16 29 34 49 73 77 117 150 192 208 290 353 509 704 836 1232 1562 2002 2497 0
2 6 13 17 30 35 50 74 78 118 151 193 209 291 354 510 705 837 1233 1563 2003 2498 0
3 7 14 18 31 36 51 75 79 119 152 194 210 292 355 511 706 838 1234 1564 2004 2499 0
1 8 9 19 23 37 52 58 80 120 153 159 211 293 356 512 707 839 1235 1565 2005 2500 0
2 4 10 20 24 38 53 59 81 121 154 160 212 294 357 513 708 840 1236 1566 2006 2501 0
3 5 11 21 25 39 54 60 82 122 155 161 213 295 358 514 709 841 1237 1567 2007 2502 0
1 6 12 22 26 40 55 61 83 123 156 162 214 296 359 515 710 842 1238 1568 2008 2503 0
2 7 13 15 27 41 56 62 84 124 157 163 215 297 360 516 711 843 1239 1569 2009 2504 0
3 8 14 16 28 42 57 63 85 125 158 164 216 298 361 517 712 844 1240 1570 2010 2505 0
1 4 9 17 29 32 43 64 86 96 126 165 217 299 362 518 548 845 911 1571 2011 2506 0
2 5 10 18 30 33 44 65 87 97 127 166 218 300 363 519 549 846 912 1572 2012 2507 0
3 6 11 19 31 34 45 66 88 98 128 167 219 301 364 520 550 847 913 1573 2013 2508 0
1 7 12 20 23 35 46 67 89 99 129 168 220 302 365 521 551 848 914 1574 2014 2509 0
2 8 13 21 24 36 47 68 90 100 130 169 221 303 366 522 552 849 915 1575 2015 2510 0
3 4 14 22 25 37 48 69 91 101 131 170 222 304 367 523 553 850 916 1576 2016 2511 0
1 5 9 15 26 38 49 70 92 102 132 171 223 305 368 524 554 851 917 1577 2017 2512 0
2 6 10 16 27 39 50 71 93 103 133 172 224 306 369 525 555 852 918 1578 2018 2513 0
3 7 11 17 28 40 51 72 94 104 134 173 225 307 370 526 556 853 919 1579 2019 2514 0
1 8 12 18 29 41 52 73 95 105 135 174 226 308 371 527 557 854 920 1580 2020 2515 0
2 4 13 19 30 42 53 74 76 106 136 175 227 309 372 528 558 855 921 1581 2021 2516 0
3 5 14 20 31 32 54 75 77 107 137 176 228 310 373 529 559 856 922 1582 2022 2517 0
1 6 9 21 23 33 55 58 78 108 138 177 229 311 374 530 560 857 923 1583 2023 2518 0
2 7 10 22 24 34 56 59 79 109 139 178 230 312 375 531 561 858 924 1584 2024 2519 0
3 8 11 15 25 35 57 60 80 110 140 179 231 313 376 532 562 859 925 1585 2025 2520 0
1 4 12 16 26 36 43 61 81 111 141 180 232 314 377 533 563 860 926 1586 2026 2521 0
2 5 13 17 27 37 44 62 82 112 142 181 233 315 378 534 564 861 927 1587 2027 2522 0
3 6 14 18 28 38 45 63 83 113 143 182 234 316 379 535 565 862 928 1588 2028 2523 0
1 7 9 19 29 39 46 64 84 114 144 183 235 317 380 536 566 863 929 1589 2029 2524 0
2 8 10 20 30 40 47 65 85 115 145 184 236 318 381 537 567 864 930 1590 2030 2525 0
3 4 11 21 31 41 48 66 86 116 146 185 237 319 382 538 568 865 931 1591 2031 2526 0
1 5 12 22 23 42 49 67 87 117 147 186 238 320 383 539 569 866 932 1592 2032 2527 0
2 6 13 15 24 32 50 68 88 118 148 187 195 321 384 540 570 867 933 1593 2033 2528 0
3 7 14 16 25 33 51 69 89 119 149 188 196 322 385 541 571 868 934 1594 2034 2529 0
1 8 9 17 26 34 52 70 90 120 150 189 197 323 386 542 572 869 935 1595 2035 2530 0
2 4 10 18 27 35 53 71 91 121 151 190 198 324 387 543 573 870 936 1596 2036 2531 0
3 5 11 19 28 36 54 72 92 122 152 191 199 325 388 544 574 871 937 1597 2037 2532 0
1 6 12 20 29 37 55 73 93 123 153 192 200 326 389 545 575 872 938 1598 2038 2533 0
2 7 13 21 30 38 56 74 94 124 154 193 201 327 390 546 576 873 939 1599 2039 2534 0
3 8 14 22 31 39 57 75 95 125 155 194 202 328 391 547 577 874 940 1600 2040 2535 0
1 4 9 15 23 40 43 58 76 96 156 159 203 239 392 428 578 875 941 1601 2041 2536 0
2 5 10 16 24 41 44 59 77 97 157 160 204 240 393 429 579 876 942 1602 2042 2537 0
3 6 11 17 25 42 45 60 78 98 158 161 205 241 394 430 580 877 943 1603 2043 2538 0
1 7 12 18 26 32 46 61 79 99 126 162 206 242 395 431 581 878 944 1604 2044 2539 0
2 8 13 19 27 33 47 62 80 100 127 163 207 243 396 432 582 879 945 1605 2045 2540 0
3 4 14 20 28 34 48 63 81 101 128 164 208 244 397 433 583 880 946 1606 2046 2541 0
1 5 9 21 29 35 49 64 82 102 129 165 209 245 398 434 584 881 947 1607 2047 2542 0
2 6 10 22 30 36 50 65 83 103 130 166 210 246 399 435 585 882 948 1608 2048 2543 0
3 7 11 15 31 37 51 66 84 104 131 167 211 247 400 436 586 883 949 1609 2049 2544 0
1 8 12 16 23 38 52 67 85 105 132 168 212 248 401 437 587 884 950 1610 2050 2545 0
2 4 13 17 24 39 53 68 86 106 133 169 213 249 402 438 588 885 951 1611 2051 2546 0
3 5 14 18 25 40 54 69 87 107 134 170 214 250 403 439 589 886 952 1612 2052 2547 0
1 6 9 19 26 41 55 70 88 108 135 171 215 251 404 440 590 887 953 1613 2053 2548 0
2 7 10 20 27 42 56 71 89 109 136 172 216 252 405 441 591 888 954 1614 2054 2549 0
3 8 11 21 28 32 57 72 90 110 137 173 217 253 406 442 592 889 955 1615 2055 2550 0
1 4 12 22 29 33 43 73 91 111 138 174 218 254 407 443 593 890 956 1616 2056 2551 0
2 5 13 15 30 34 44 74 92 112 139 175 219 255 408 444 594 891 957 1617 2057 2552 0
3 6 14 16 31 35 45 75 93 113 140 176 220 256 409 445 595 892 958 1618 2058 2553 0
1 7 9 17 23 36 46 58 94 114 141 177 221 257 410 446 596 893 959 1619 2059 2554 0
2 8 10 18 24 37 47 59 95 115 142 178 222 258 411 447 597 894 960 1620 2060 2555 0
3 4 11 19 25 38 48 60 76 116 143 179 223 259 412 448 598 895 961 1621 2061 2556 0
1 5 12 20 26 39 49 61 77 117 144 180 224 260 413 449 599 896 962 1622 2062 2557 0
2 6 13 21 27 40 50 62 78 118 145 181 225 261 414 450 600 897 963 1623 2063 2558 0
3 7 14 22 28 41 51 63 79 119 146 182 226 262 415 451 601 898 964 1624 2064 2559 0
1 8 9 15 29 42 52 64 80 120 147 183 227 263 416 452 602 899 965 1625 2065 2560 0
2 4 10 16 30 32 53 65 81 121 148 184 228 264 417 453 603 900 966 1626 2066 2561 0
3 5 11 17 31 33 54 66 82 122 149 185 229 265 418 454 604 901 967 1627 2067 2562 0
1 6 12 18 23 34 55 67 83 123 150 186 230 266 419 455 605 902 968 1628 2068 2563 0
2 7 13 19 24 35 56 68 84 124 151 187 231 267 420 456 606 903 969 1629 2069 2564 0
3 8 14 20 25 36 57 69 85 125 152 188 232 268 421 457 607 904 970 1630 2070 2565 0
1 4 9 21 26 37 43 70 86 96 153 189 233 269 422 458 608 905 971 1631 2071 2566 0
2 5 10 22 27 38 44 71 87 97 154 190 234 270 423 459 609 906 972 1632 2072 2567 0
3 6 11 15 28 39 45 72 88 98 155 191 235 271 424 460 610 907 973 1633 2073 2568 0
1 7 12 16 29 40 46 73 89 99 156 192 236 272 425 461 611 908 974 1634 2074 2569 0
2 8 13 17 30 41 47 74 90 100 157 193 237 273 426 462 612 909 975 1635 2075 2570 0
3 4 14 18 31 42 48 75 91 101 158 194 238 274 427 463 613 910 976 1636 2076 2571 0
1 5 9 19 23 32 49 58 92 102 126 159 195 275 329 464 614 713 977 1637 2077 2572 0
2 6 10 20 24 33 50 59 93 103 127 160 196 276 330 465 615 714 978 1638 2078 2573 0
3 7 11 21 25 34 51 60 94 104 128 161 197 277 331 466 616 715 979 1639 2079 2574 0
1 8 12 22 26 35 52 61 95 105 129 162 198 278 332 467 617 716 980 1640 2080 2575 0
2 4 13 15 27 36 53 62 76 106 130 163 199 279 333 468 618 717 981 1641 2081 2576 0
3 5 14 16 28 37 54 63 77 107 131 164 200 280 334 469 619 718 982 1642 2082 2577 0
1 6 9 17 29 38 55 64 78 108 132 165 201 281 335 470 620 719 983 1643 2083 2578 0
2 7 10 18 30 39 56 65 79 109 133 166 202 282 336 471 621 720 984 1644 2084 2579 0
3 8 11 19 31 40 57 66 80 110 134 167 203 283 337 472 622 721 985 1645 2085 2580 0
1 4 12 20 23 41 43 67 81 111 135 168 204 284 338 473 623 722 986 1646 2086 2581 0
2 5 13 21 24 42 44 68 82 112 136 169 205 285 339 474 624 723 987 1647 2087 2582 0
3 6 14 22 25 32 45 69 83 113 137 170 206 286 340 475 625 724 988 1648 2088 2583 0
1 7 9 15 26 33 46 70 84 114 138 171 207 287 341 476 626 725 989 1649 2089 2584 0
2 8 10 16 27 34 47 71 85 115 139 172 208 288 342 477 627 726 990 1650 2090 2585 0
3 4 11 17 28 35 48 72 86 116 140 173 209 289 343 478 628 727 991 1651 2091 2586 0
1 5 12 18 29 36 49 73 87 117 141 174 210 290 344 479 629 728 992 1652 2092 2587 0
2 6 13 19 30 37 50 74 88 118 142 175 211 291 345 480 630 729 993 1653 2093 2588 0
3 7 14 20 31 38 51 75 89 119 143 176 212 292 346 481 631 730 994 1654 2094 2589 0
1 8 9 21 23 39 52 58 90 120 144 177 213 293 347 482 632 731 995 1655 2095 2590 0
2 4 10 22 24 40 53 59 91 121 145 178 214 294 348 483 633 732 996 1656 2096 2591 0
3 5 11 15 25 41 54 60 92 122 146 179 215 295 349 484 634 733 997 1657 2097 2592 0
1 6 12 16 26 42 55 61 93 123 147 180 216 296 350 485 635 734 998 1658 2098 2593 0
2 7 13 17 27 32 56 62 94 124 148 181 217 297 351 486 636 735 999 1659 2099 2594 0
3 8 14 18 28 33 57 63 95 125 149 182 218 298 352 487 637 736 1000 1660 2100 2595 0
1 4 9 19 29 34 43 64 76 96 150 183 219 299 353 488 638 737 1001 1661 2101 2596 0
2 5 10 20 30 35 44 65 77 97 151 184 220 300 354 489 639 738 1002 1662 2102 2597 0
3 6 11 21 31 36 45 66 78 98 152 185 221 301 355 490 640 739 1003 1663 2103 2598 0
1 7 12 22 23 37 46 67 79 99 153 186 222 302 356 491 641 740 1004 1664 2104 2599 0
2 8 13 15 24 38 47 68 80 100 154 187 223 303 357 492 642 741 1005 1665 2105 2600 0
3 4 14 16 25 39 48 69 81 101 155 188 224 304 358 493 643 742 1006 1666 2106 2601 0
1 5 9 17 26 40 49 70 82 102 156 189 225 305 359 494 644 743 1007 1667 2107 2602 0
2 6 10 18 27 41 50 71 83 103 157 190 226 306 360 495 645 744 1008 1668 2108 2603 0
3 7 11 19 28 42 51 72 84 104 158 191 227 307 361 496 646 745 1009 1669 2109 2604 0
1 8 12 20 29 32 52 73 85 105 126 192 228 308 362 497 647 746 1010 1670 2110 2605 0
2 4 13 21 30 33 53 74 86 106 127 193 229 309 363 498 648 747 1011 1671 2111 2606 0
3 5 14 22 31 34 54 75 87 107 128 194 230 310 364 499 649 748 1012 1672 2112 2607 0
1 6 9 15 23 35 55 58 88 108 129 159 231 311 365 500 650 749 1013 1673 2113 2608 0
2 7 10 16 24 36 56 59 89 109 130 160 232 312 366 501 651 750 1014 1674 2114 2609 0
3 8 11 17 25 37 57 60 90 110 131 161 233 313 367 502 652 751 1015 1675 2115 2610 0
1 4 12 18 26 38 43 61 91 111 132 162 234 314 368 503 653 752 1016 1676 2116 2611 0
2 5 13 19 27 39 44 62 92 112 133 163 235 315 369 504 654 753 1017 1677 2117 2612 0
3 6 14 20 28 40 45 63 93 113 134 164 236 316 370 505 655 754 1018 1678 2118 2613 0
1 7 9 21 29 41 46 64 94 114 135 165 237 317 371 506 656 755 1019 1679 2119 2614 0
2 8 10 22 30 42 47 65 95 115 136 166 238 318 372 507 657 756 1020 1680 2120 2615 0
3 4 11 15 31 32 48 66 76 116 137 167 195 319 373 508 658 757 1021 1241 2121 2616 0
1 5 12 16 23 33 49 67 77 117 138 168 196 320 374 509 659 758 1022 1242 2122 2617 0
2 6 13 17 24 34 50 68 78 118 139 169 197 321 375 510 660 759 1023 1243 2123 2618 0
3 7 14 18 25 35 51 69 79 119 140 170 198 322 376 511 661 760 1024 1244 2124 2619 0
1 8 9 19 26 36 52 70 80 120 141 171 199 323 377 512 662 761 1025 1245 2125 2620 0
2 4 10 20 27 37 53 71 81 121 142 172 200 324 378 513 663 762 1026 1246 2126 2621 0
3 5 11 21 28 38 54 72 82 122 143 173 201 325 379 514 664 763 1027 1247 2127 2622 0
1 6 12 22 29 39 55 73 83 123 144 174 202 326 380 515 665 764 1028 1248 2128 2623 0
2 7 13 15 30 40 56 74 84 124 145 175 203 327 381 516 666 765 1029 1249 2129 2624 0
3 8 14 16 31 41 57 75 85 125 146 176 204 328 382 517 667 766 1030 1250 2130 2625 0
1 4 9 17 23 42 43 58 86 96 147 177 205 239 383 518 668 767 1031 1251 2131 2626 0
2 5 10 18 24 32 44 59 87 97 148 178 206 240 384 519 669 768 1032 1252 2132 2627 0
3 6 11 19 25 33 45 60 88 98 149 179 207 241 385 520 670 769 1033 1253 2133 2628 0
1 7 12 20 26 34 46 61 89 99 150 180 208 242 386 521 671 770 1034 1254 2134 2629 0
2 8 13 21 27 35 47 62 90 100 151 181 209 243 387 522 672 771 1035 1255 2135 2630 0
3 4 14 22 28 36 48 63 91 101 152 182 210 244 388 523 673 772 1036 1256 2136 2631 0
1 5 9 15 29 37 49 64 92 102 153 183 211 245 389 524 674 773 1037 1257 2137 2632 0
2 6 10 16 30 38 50 65 93 103 154 184 212 246 390 525 675 774 1038 1258 2138 2633 0
3 7 11 17 31 39 51 66 94 104 155 185 213 247 391 526 676 775 1039 1259 2139 2634 0
1 8 12 18 23 40 52 67 95 105 156 186 214 248 392 527 677 776 1040 1260 2140 2635 0
2 4 13 19 24 41 53 68 76 106 157 187 215 249 393 528 678 777 1041 1261 2141 2636 0
3 5 14 20 25 42 54 69 77 107 158 188 216 250 394 529 679 778 1042 1262 2142 2637 0
1 6 9 21 26 32 55 70 78 108 126 189 217 251 395 530 680 779 1043 1263 2143 2638 0
2 7 10 22 27 33 56 71 79 109 127 190 218 252 396 531 681 780 1044 1264 2144 2639 0
3 8 11 15 28 34 57 72 80 110 128 191 219 253 397 532 682 781 1045 1265 2145 2640 0
1 4 12 16 29 35 43 73 81 111 129 192 220 254 398 533 683 782 1046 1266 2146 2641 0
2 5 13 17 30 36 44 74 82 112 130 193 221 255 399 534 684 783 1047 1267 2147 2642 0
3 6 14 18 31 37 45 75 83 113 131 194 222 256 400 535 685 784 1048 1268 2148 2643 0
1 7 9 19 23 38 46 58 84 114 132 159 223 257 401 536 686 785 1049 1269 2149 2644 0
2 8 10 20 24 39 47 59 85 115 133 160 224 258 402 537 687 786 1050 1270 2150 2645 0
3 4 11 21 25 40 48 60 86 116 134 161 225 259 403 538 688 787 1051 1271 2151 2646 0
1 5 12 22 26 41 49 61 87 117 135 162 226 260 404 539 689 788 1052 1272 2152 2647 0
2 6 13 15 27 42 50 62 88 118 136 163 227 261 405 540 690 789 1053 1273 2153 2648 0
3 7 14 16 28 32 51 63 89 119 137 164 228 262 406 541 691 790 1054 1274 2154 2649 0
1 8 9 17 29 33 52 64 90 120 138 165 229 263 407 542 692 791 1055 1275 2155 2650 0
2 4 10 18 30 34 53 65 91 121 139 166 230 264 408 543 693 792 1056 1276 2156 2651 0
3 5 11 19 31 35 54 66 92 122 140 167 231 265 409 544 694 793 1057 1277 2157 2652 0
1 6 12 20 23 36 55 67 93 123 141 168 232 266 410 545 695 794 1058 1278 2158 2653 0
2 7 13 21 24 37 56 68 94 124 142 169 233 267 411 546 696 795 1059 1279 2159 2654 0
3 8 14 22 25 38 57 69 95 125 143 170 234 268 412 547 697 796 1060 1280 2160 2655 0
1 4 9 15 26 39 43 70 76 96 144 171 235 269 413 428 698 797 1061 1281 2161 2656 0
2 5 10 16 27 40 44 71 77 97 145 172 236 270 414 429 699 798 1062 1282 2162 2657 0
3 6 11 17 28 41 45 72 78 98 146 173 237 271 415 430 700 799 1063 1283 2163 2658 0
1 7 12 18 29 42 46 73 79 99 147 174 238 272 416 431 701 800 1064 1284 2164 2659 0
2 8 13 19 30 32 47 74 80 100 148 175 195 273 417 432 702 801 1065 1285 2165 2660 0
3 4 14 20 31 33 48 75 81 101 149 176 196 274 418 433 703 802 1066 1286 2166 2661 0
1 5 9 21 23 34 49 58 82 102 150 177 197 275 419 434 704 803 1067 1287 2167 2662 0
2 6 10 22 24 35 50 59 83 103 151 178 198 276 420 435 705 804 1068 1288 2168 2663 0
3 7 11 15 25 36 51 60 84 104 152 179 199 277 421 436 706 805 1069 1289 2169 2664 0
1 8 12 16 26 37 52 61 85 105 153 180 200 278 422 437 707 806 1070 1290 2170 2665 0
2 4 13 17 27 38 53 62 86 106 154 181 201 279 423 438 708 807 1071 1291 2171 2666 0
3 5 14 18 28 39 54 63 87 107 155 182 202 280 424 439 709 808 1072 1292 2172 2667 0
1 6 9 19 29 40 55 64 88 108 156 183 203 281 425 440 710 809 1073 1293 2173 2668 0
2 7 10 20 30 41 56 65 89 109 157 184 204 282 426 441 711 810 1074 1294 2174 2669 0
3 8 11 21 31 42 57 66 90 110 158 185 205 283 427 442 712 811 1075 1295 2175 2670 0
1 4 12 22 23 32 43 67 91 111 126 186 206 284 329 443 548 812 1076 1296 1681 2671 0
2 5 13 15 24 33 44 68 92 112 127 187 207 285 330 444 549 813 1077 1297 1682 2672 0
3 6 14 16 25 34 45 69 93 113 128 188 208 286 331 445 550 814 1078 1298 1683 2673 0
1 7 9 17 26 35 46 70 94 114 129 189 209 287 332 446 551 815 1079 1299 1684 2674 0
2 8 10 18 27 36 47 71 95 115 130 190 210 288 333 447 552 816 1080 1300 1685 2675 0
3 4 11 19 28 37 48 72 76 116 131 191 211 289 334 448 553 817 1081 1301 1686 2676 0
1 5 12 20 29 38 49 73 77 117 132 192 212 290 335 449 554 818 1082 1302 1687 2677 0
2 6 13 21 30 39 50 74 78 118 133 193 213 291 336 450 555 819 1083 1303 1688 2678 0
3 7 14 22 31 40 51 75 79 119 134 194 214 292 337 451 556 820 1084 1304 1689 2679 0
1 8 9 15 23 41 52 58 80 120 135 159 215 293 338 452 557 821 1085 1305 1690 2680 0
2 4 10 16 24 42 53 59 81 121 136 160 216 294 339 453 558 822 1086 1306 1691 2681 0
3 5 11 17 25 32 54 60 82 122 137 161 217 295 340 454 559 823 1087 1307 1692 2682 0
1 6 12 18 26 33 55 61 83 123 138 162 218 296 341 455 560 824 1088 1308 1693 2683 0
2 7 13 19 27 34 56 62 84 124 139 163 219 297 342 456 561 825 1089 1309 1694 2684 0
3 8 14 20 28 35 57 63 85 125 140 164 220 298 343 457 562 826 1090 1310 1695 2685 0
1 4 9 21 29 36 43 64 86 96 141 165 221 299 344 458 563 827 1091 1311 1696 2686 0
2 5 10 22 30 37 44 65 87 97 142 166 222 300 345 459 564 828 1092 1312 1697 2687 0
3 6 11 15 31 38 45 66 88 98 143 167 223 301 346 460 565 829 1093 1313 1698 2688 0
1 7 12 16 23 39 46 67 89 99 144 168 224 302 347 461 566 830 1094 1314 1699 2689 0
2 8 13 17 24 40 47 68 90 100 145 169 225 303 348 462 567 831 1095 1315 1700 2690 0
3 4 14 18 25 41 48 69 91 101 146 170 226 304 349 463 568 832 1096 1316 1701 2691 0
1 5 9 19 26 42 49 70 92 102 147 171 227 305 350 464 569 833 1097 1317 1702 2692 0
2 6 10 20 27 32 50 71 93 103 148 172 228 306 351 465 570 834 1098 1318 1703 2693 0
3 7 11 21 28 33 51 72 94 104 149 173 229 307 352 466 571 835 1099 1319 1704 2694 0
1 8 12 22 29 34 52 73 95 105 150 174 230 308 353 467 572 836 1100 1320 1705 2695 0
2 4 13 15 30 35 53 74 76 106 151 175 231 309 354 468 573 837 1101 1321 1706 2696 0
3 5 14 16 31 36 54 75 77 107 152 176 232 310 355 469 574 838 1102 1322 1707 2697 0
1 6 9 17 23 37 55 58 78 108 153 177 233 311 356 470 575 839 1103 1323 1708 2698 0
2 7 10 18 24 38 56 59 79 109 154 178 234 312 357 471 576 840 1104 1324 1709 2699 0
3 8 11 19 25 39 57 60 80 110 155 179 235 313 358 472 577 841 1105 1325 1710 2700 0
1 4 12 20 26 40 43 61 81 111 156 180 236 314 359 473 578 842 1106 1326 1711 2701 0
2 5 13 21 27 41 44 62 82 112 157 181 237 315 360 474 579 843 1107 1327 1712 2702 0
3 6 14 22 28 42 45 63 83 113 158 182 238 316 361 475 580 844 1108 1328 1713 2703 0
1 7 9 15 29 32 46 64 84 114 126 183 195 317 362 476 581 845 1109 1329 1714 2704 0
2 8 10 16 30 33 47 65 85 115 127 184 196 318 363 477 582 846 1110 1330 1715 2705 0
3 4 11 17 31 34 48 66 86 116 128 185 197 319 364 478 583 847 1111 1331 1716 2706 0
1 5 12 18 23 35 49 67 87 117 129 186 198 320 365 479 584 848 1112 1332 1717 2707 0
2 6 13 19 24 36 50 68 88 118 130 187 199 321 366 480 585 849 1113 1333 1718 2708 0
3 7 14 20 25 37 51 69 89 119 131 188 200 322 367 481 586 850 1114 1334 1719 2709 0
1 8 9 21 26 38 52 70 90 120 132 189 201 323 368 482 587 851 1115 1335 1720 2710 0
2 4 10 22 27 39 53 71 91 121 133 190 202 324 369 483 588 852 1116 1336 1721 2711 0
3 5 11 15 28 40 54 72 92 122 134 191 203 325 370 484 589 853 1117 1337 1722 2712 0
1 6 12 16 29 41 55 73 93 123 135 192 204 326 371 485 590 854 1118 1338 1723 2713 0
2 7 13 17 30 42 56 74 94 124 136 193 205 327 372 486 591 855 1119 1339 1724 2714 0
3 8 14 18 31 32 57 75 95 125 137 194 206 328 373 487 592 856 1120 1340 1725 2715 0
1 4 9 19 23 33 43 58 76 96 138 159 207 239 374 488 593 857 1121 1341 1726 2716 0
2 5 10 20 24 34 44 59 77 97 139 160 208 240 375 489 594 858 1122 1342 1727 2717 0
3 6 11 21 25 35 45 60 78 98 140 161 209 241 376 490 595 859 1123 1343 1728 2718 0
1 7 12 22 26 36 46 61 79 99 141 162 210 242 377 491 596 860 1124 1344 1729 2719 0
2 8 13 15 27 37 47 62 80 100 142 163 211 243 378 492 597 861 1125 1345 1730 2720 0
3 4 14 16 28 38 48 63 81 101 143 164 212 244 379 493 598 862 1126 1346 1731 2721 0
1 5 9 17 29 39 49 64 82 102 144 165 213 245 380 494 599 863 1127 1347 1732 2722 0
2 6 10 18 30 40 50 65 83 103 145 166 214 246 381 495 600 864 1128 1348 1733 2723 0
3 7 11 19 31 41 51 66 84 104 146 167 215 247 382 496 601 865 1129 1349 1734 2724 0
1 8 12 20 23 42 52 67 85 105 147 168 216 248 383 497 602 866 1130 1350 1735 2725 0
2 4 13 21 24 32 53 68 86 106 148 169 217 249 384 498 603 867 1131 1351 1736 2726 0
3 5 14 22 25 33 54 69 87 107 149 170 218 250 385 499 604 868 1132 1352 1737 2727 0
1 6 9 15 26 34 55 70 88 108 150 171 219 251 386 500 605 869 1133 1353 1738 2728 0
2 7 10 16 27 35 56 71 89 109 151 172 220 252 387 501 606 870 1134 1354 1739 2729 0
3 8 11 17 28 36 57 72 90 110 152 173 221 253 388 502 607 871 1135 1355 1740 2730 0
1 4 12 18 29 37 43 73 91 111 153 174 222 254 389 503 608 872 1136 1356 1741 2731 0
2 5 13 19 30 38 44 74 92 112 154 175 223 255 390 504 609 873 1137 1357 1742 2732 0
3 6 14 20 31 39 45 75 93 113 155 176 224 256 391 505 610 874 1138 1358 1743 2733 0
1 7 9 21 23 40 46 58 94 114 156 177 225 257 392 506 611 875 1139 1359 1744 2734 0
2 8 10 22 24 41 47 59 95 115 157 178 226 258 393 507 612 876 1140 1360 1745 2735 0
3 4 11 15 25 42 48 60 76 116 158 179 227 259 394 508 613 877 1141 1361 1746 2736 0
1 5 12 16 26 32 49 61 77 117 126 180 228 260 395 509 614 878 1142 1362 1747 2737 0
2 6 13 17 27 33 50 62 78 118 127 181 229 261 396 510 615 879 1143 1363 1748 2738 0
3 7 14 18 28 34 51 63 79 119 128 182 230 262 397 511 616 880 1144 1364 1749 2739 0
1 8 9 19 29 35 52 64 80 120 129 183 231 263 398 512 617 881 1145 1365 1750 2740 0
2 4 10 20 30 36 53 65 81 121 130 184 232 264 399 513 618 882 1146 1366 1751 2741 0
3 5 11 21 31 37 54 66 82 122 131 185 233 265 400 514 619 883 1147 1367 1752 2742 0
1 6 12 22 23 38 55 67 83 123 132 186 234 266 401 515 620 884 1148 1368 1753 2743 0
2 7 13 15 24 39 56 68 84 124 133 187 235 267 402 516 621 885 1149 1369 1754 2744 0
3 8 14 16 25 40 57 69 85 125 134 188 236 268 403 517 622 886 1150 1370 1755 2745 0
1 4 9 17 26 41 43 70 86 96 135 189 237 269 404 518 623 887 1151 1371 1756 2746 0
2 5 10 18 27 42 44 71 87 97 136 190 238 270 405 519 624 888 1152 1372 1757 2747 0
3 6 11 19 28 32 45 72 88 98 137 191 195 271 406 520 625 889 1153 1373 1758 2748 0
1 7 12 20 29 33 46 73 89 99 138 192 196 272 407 521 626 890 1154 1374 1759 2749 0
2 8 13 21 30 34 47 74 90 100 139 193 197 273 408 522 627 891 1155 1375 1760 2750 0
3 4 14 22 31 35 48 75 91 101 140 194 198 274 409 523 628 892 1156 1376 1761 2751 0
1 5 9 15 23 36 49 58 92 102 141 159 199 275 410 524 629 893 1157 1377 1762 2752 0
2 6 10 16 24 37 50 59 93 103 142 160 200 276 411 525 630 894 1158 1378 1763 2753 0
3 7 11 17 25 38 51 60 94 104 143 161 201 277 412 526 631 895 1159 1379 1764 2754 0
1 8 12 18 26 39 52 61 95 105 144 162 202 278 413 527 632 896 1160 1380 1765 2755 0
2 4 13 19 27 40 53 62 76 106 145 163 203 279 414 528 633 897 1161 1381 1766 2756 0
3 5 14 20 28 41 54 63 77 107 146 164 204 280 415 529 634 898 1162 1382 1767 2757 0
1 6 9 21 29 42 55 64 78 108 147 165 205 281 416 530 635 899 1163 1383 1768 2758 0
2 7 10 22 30 32 56 65 79 109 148 166 206 282 417 531 636 900 1164 1384 1769 2759 0
3 8 11 15 31 33 57 66 80 110 149 167 207 283 418 532 637 901 1165 1385 1770 2760 0
1 4 12 16 23 34 43 67 81 111 150 168 208 284 419 533 638 902 1166 1386 1771 2761 0
2 5 13 17 24 35 44 68 82 112 151 169 209 285 420 534 639 903 1167 1387 1772 2762 0
3 6 14 18 25 36 45 69 83 113 152 170 210 286 421 535 640 904 1168 1388 1773 2763 0
1 7 9 19 26 37 46 70 84 114 153 171 211 287 422 536 641 905 1169 1389 1774 2764 0
2 8 10 20 27 38 47 71 85 115 154 172 212 288 423 537 642 906 1170 1390 1775 2765 0
3 4 11 21 28 39 48 72 86 116 155 173 213 289 424 538 643 907 1171 1391 1776 2766 0
1 5 12 22 29 40 49 73 87 117 156 174 214 290 425 539 644 908 1172 1392 1777 2767 0
2 6 13 15 30 41 50 74 88 118 157 175 215 291 426 540 645 909 1173 1393 1778 2768 0
3 7 14 16 31 42 51 75 89 119 158 176 216 292 427 541 646 910 1174 1394 1779 2769 0
1 8 9 17 23 32 52 58 90 120 126 177 217 293 329 542 647 713 1175 1395 1780 2770 0
2 4 10 18 24 33 53 59 91 121 127 178 218 294 330 543 648 714 1176 1396 1781 2771 0
3 5 11 19 25 34 54 60 92 122 128 179 219 295 331 544 649 715 1177 1397 1782 2772 0
1 6 12 20 26 35 55 61 93 123 129 180 220 296 332 545 650 716 1178 1398 1783 2773 0
2 7 13 21 27 36 56 62 94 124 130 181 221 297 333 546 651 717 1179 1399 1784 2774 0
3 8 14 22 28 37 57 63 95 125 131 182 222 298 334 547 652 718 1180 1400 1785 2775 0
1 4 9 15 29 38 43 64 76 96 132 183 223 299 335 428 653 719 1181 1401 1786 2776 0
2 5 10 16 30 39 44 65 77 97 133 184 224 300 336 429 654 720 1182 1402 1787 2777 0
3 6 11 17 31 40 45 66 78 98 134 185 225 301 337 430 655 721 1183 1403 1788 2778 0
1 7 12 18 23 41 46 67 79 99 135 186 226 302 338 431 656 722 1184 1404 1789 2779 0
2 8 13 19 24 42 47 68 80 100 136 187 227 303 339 432 657 723 1185 1405 1790 2780 0
3 4 14 20 25 32 48 69 81 101 137 188 228 304 340 433 658 724 1186 1406 1791 2781 0
1 5 9 21 26 33 49 70 82 102 138 189 229 305 341 434 659 725 1187 1407 1792 2782 0
2 6 10 22 27 34 50 71 83 103 139 190 230 306 342 435 660 726 1188 1408 1793 2783 0
3 7 11 15 28 35 51 72 84 104 140 191 231 307 343 436 661 727 1189 1409 1794 2784 0
1 8 12 16 29 36 52 73 85 105 141 192 232 308 344 437 662 728 1190 1410 1795 2785 0
2 4 13 17 30 37 53 74 86 106 142 193 233 309 345 438 663 729 1191 1411 1796 2786 0
3 5 14 18 31 38 54 75 87 107 143 194 234 310 346 439 664 730 1192 1412 1797 2787 0
1 6 9 19 23 39 55 58 88 108 144 159 235 311 347 440 665 731 1193 1413 1798 2788 0
2 7 10 20 24 40 56 59 89 109 145 160 236 312 348 441 666 732 1194 1414 1799 2789 0
3 8 11 21 25 41 57 60 90 110 146 161 237 313 349 442 667 733 1195 1415 1800 2790 0
1 4 12 22 26 42 43 61 91 111 147 162 238 314 350 443 668 734 1196 1416 1801 2791 0
2 5 13 15 27 32 44 62 92 112 148 163 195 315 351 444 669 735 1197 1417 1802 2792 0
3 6 14 16 28 33 45 63 93 113 149 164 196 316 352 445 670 736 1198 1418 1803 2793 0
1 7 9 17 29 34 46 64 94 114 150 165 197 317 353 446 671 737 1199 1419 1804 2794 0
2 8 10 18 30 35 47 65 95 115 151 166 198 318 354 447 672 738 1200 1420 1805 2795 0
3 4 11 19 31 36 48 66 76 116 152 167 199 319 355 448 673 739 1201 1421 1806 2796 0
1 5 12 20 23 37 49 67 77 117 153 168 200 320 356 449 674 740 1202 1422 1807 2797 0
2 6 13 21 24 38 50 68 78 118 154 169 201 321 357 450 675 741 1203 1423 1808 2798 0
3 7 14 22 25 39 51 69 79 119 155 170 202 322 358 451 676 742 1204 1424 1809 2799 0
1 8 9 15 26 40 52 70 80 120 156 171 203 323 359 452 677 743 1205 1425 1810 2800 0
2 4 10 16 27 41 53 71 81 121 157 172 204 324 360 453 678 744 1206 1426 1811 2801 0
3 5 11 17 28 42 54 72 82 122 158 173 205 325 361 454 679 745 1207 1427 1812 2802 0
1 6 12 18 29 32 55 73 83 123 126 174 206 326 362 455 680 746 1208 1428 1813 2803 0
2 7 13 19 30 33 56 74 84 124 127 175 207 327 363 456 681 747 1209 1429 1814 2804 0
3 8 14 20 31 34 57 75 85 125 128 176 208 328 364 457 682 748 1210 1430 1815 2805 0
1 4 9 21 23 35 43 58 86 96 129 177 209 239 365 458 683 749 1211 1431 1816 2806 0
2 5 10 22 24 36 44 59 87 97 130 178 210 240 366 459 684 750 1212 1432 1817 2807 0
3 6 11 15 25 37 45 60 88 98 131 179 211 241 367 460 685 751 1213 1433 1818 2808 0
1 7 12 16 26 38 46 61 89 99 132 180 212 242 368 461 686 752 1214 1434 1819 2809 0
2 8 13 17 27 39 47 62 90 100 133 181 213 243 369 462 687 753 1215 1435 1820 2810 0
3 4 14 18 28 40 48 63 91 101 134 182 214 244 370 463 688 754 1216 1436 1821 2811 0
1 5 9 19 29 41 49 64 92 102 135 183 215 245 371 464 689 755 1217 1437 1822 2812 0
2 6 10 20 30 42 50 65 93 103 136 184 216 246 372 465 690 756 1218 1438 1823 2813 0
3 7 11 21 31 32 51 66 94 104 137 185 217 247 373 466 691 757 1219 1439 1824 2814 0
1 8 12 22 23 33 52 67 95 105 138 186 218 248 374 467 692 758 1220 1440 1825 2815 0
2 4 13 15 24 34 53 68 76 106 139 187 219 249 375 468 693 759 1221 1441 1826 2816 0
3 5 14 16 25 35 54 69 77 107 140 188 220 250 376 469 694 760 1222 1442 1827 2817 0
1 6 9 17 26 36 55 70 78 108 141 189 221 251 377 470 695 761 1223 1443 1828 2818 0
2 7 10 18 27 37 56 71 79 109 142 190 222 252 378 471 696 762 1224 1444 1829 2819 0
3 8 11 19 28 38 57 72 80 110 143 191 223 253 379 472 697 763 1225 1445 1830 2820 0
1 4 12 20 29 39 43 73 81 111 144 192 224 254 380 473 698 764 1226 1446 1831 2821 0
2 5 13 21 30 40 44 74 82 112 145 193 225 255 381 474 699 765 1227 1447 1832 2822 0
3 6 14 22 31 41 45 75 83 113 146 194 226 256 382 475 700 766 1228 1448 1833 2823 0
1 7 9 15 23 42 46 58 84 114 147 159 227 257 383 476 701 767 1229 1449 1834 2824 0
2 8 10 16 24 32 47 59 85 115 148 160 228 258 384 477 702 768 1230 1450 1835 2825 0
3 4 11 17 25 33 48 60 86 116 149 161 229 259 385 478 703 769 1231 1451 1836 2826 0
1 5 12 18 26 34 49 61 87 117 150 162 230 260 386 479 704 770 1232 1452 1837 2827 0
2 6 13 19 27 35 50 62 88 118 151 163 231 261 387 480 705 771 1233 1453 1838 2828 0
3 7 14 20 28 36 51 63 89 119 152 164 232 262 388 481 706 772 1234 1454 1839 2829 0
1 8 9 21 29 37 52 64 90 120 153 165 233 263 389 482 707 773 1235 1455 1840 2830 0
2 4 10 22 30 38 53 65 91 121 154 166 234 264 390 483 708 774 1236 1456 1841 2831 0
3 5 11 15 31 39 54 66 92 122 155 167 235 265 391 484 709 775 1237 1457 1842 2832 0
1 6 12 16 23 40 55 67 93 123 156 168 236 266 392 485 710 776 1238 1458 1843 2833 0
2 7 13 17 24 41 56 68 94 124 157 169 237 267 393 486 711 777 1239 1459 1844 2834 0
3 8 14 18 25 42 57 69 95 125 158 170 238 268 394 487 712 778 1240 1460 1845 2835 0
1 4 9 19 26 32 43 70 76 96 126 171 195 269 395 488 548 779 911 1461 1846 2176 0
2 5 10 20 27 33 44 71 77 97 127 172 196 270 396 489 549 780 912 1462 1847 2177 0
3 6 11 21 28 34 45 72 78 98 128 173 197 271 397 490 550 781 913 1463 1848 2178 0
1 7 12 22 29 35 46 73 79 99 129 174 198 272 398 491 551 782 914 1464 1849 2179 0
2 8 13 15 30 36 47 74 80 100 130 175 199 273 399 492 552 783 915 1465 1850 2180 0
3 4 14 16 31 37 48 75 81 101 131 176 200 274 400 493 553 784 916 1466 1851 2181 0
1 5 9 17 23 38 49 58 82 102 132 177 201 275 401 494 554 785 917 1467 1852 2182 0
2 6 10 18 24 39 50 59 83 103 133 178 202 276 402 495 555 786 918 1468 1853 2183 0
3 7 11 19 25 40 51 60 84 104 134 179 203 277 403 496 556 787 919 1469 1854 2184 0
1 8 12 20 26 41 52 61 85 105 135 180 204 278 404 497 557 788 920 1470 1855 2185 0
2 4 13 21 27 42 53 62 86 106 136 181 205 279 405 498 558 789 921 1471 1856 2186 0
3 5 14 22 28 32 54 63 87 107 137 182 206 280 406 499 559 790 922 1472 1857 2187 0
1 6 9 15 29 33 55 64 88 108 138 183 207 281 407 500 560 791 923 1473 1858 2188 0
2 7 10 16 30 34 56 65 89 109 139 184 208 282 408 501 561 792 924 1474 1859 2189 0
3 8 11 17 31 35 57 66 90 110 140 185 209 283 409 502 562 793 925 1475 1860 2190 0
1 4 12 18 23 36 43 67 91 111 141 186 210 284 410 503 563 794 926 1476 1861 2191 0
2 5 13 19 24 37 44 68 92 112 142 187 211 285 411 504 564 795 927 1477 1862 2192 0
3 6 14 20 25 38 45 69 93 113 143 188 212 286 412 505 565 796 928 1478 1863 2193 0
1 7 9 21 26 39 46 70 94 114 144 189 213 287 413 506 566 797 929 1479 1864 2194 0
2 8 10 22 27 40 47 71 95 115 145 190 214 288 414 507 567 798 930 1480 1865 2195 0
3 4 11 15 28 41 48 72 76 116 146 191 215 289 415 508 568 799 931 1481 1866 2196 0
1 5 12 16 29 42 49 73 77 117 147 192 216 290 416 509 569 800 932 1482 1867 2197 0
2 6 13 17 30 32 50 74 78 118 148 193 217 291 417 510 570 801 933 1483 1868 2198 0
3 7 14 18 31 33 51 75 79 119 149 194 218 292 418 511 571 802 934 1484 1869 2199 0
1 8 9 19 23 34 52 58 80 120 150 159 219 293 419 512 572 803 935 1485 1870 2200 0
2 4 10 20 24 35 53 59 81 121 151 160 220 294 420 513 573 804 936 1486 1871 2201 0
3 5 11 21 25 36 54 60 82 122 152 161 221 295 421 514 574 805 937 1487 1872 2202 0
1 6 12 22 26 37 55 61 83 123 153 162 222 296 422 515 575 806 938 1488 1873 2203 0
2 7 13 15 27 38 56 62 84 124 154 163 223 297 423 516 576 807 939 1489 1874 2204 0
3 8 14 16 28 39 57 63 85 125 155 164 224 298 424 517 577 808 940 1490 1875 2205 0
1 4 9 17 29 40 43 64 86 96 156 165 225 299 425 518 578 809 941 1491 1876 2206 0
2 5 10 18 30 41 44 65 87 97 157 166 226 300 426 519 579 810 942 1492 1877 2207 0
3 6 11 19 31 42 45 66 88 98 158 167 227 301 427 520 580 811 943 1493 1878 2208 0
1 7 12 20 23 32 46 67 89 99 126 168 228 302 329 521 581 812 944 1494 1879 2209 0
2 8 13 21 24 33 47 68 90 100 127 169 229 303 330 522 582 813 945 1495 1880 2210 0
3 4 14 22 25 34 48 69 91 101 128 170 230 304 331 523 583 814 946 1496 1881 2211 0
1 5 9 15 26 35 49 70 92 102 129 171 231 305 332 524 584 815 947 1497 1882 2212 0
2 6 10 16 27 36 50 71 93 103 130 172 232 306 333 525 585 816 948 1498 1883 2213 0
3 7 11 17 28 37 51 72 94 104 131 173 233 307 334 526 586 817 949 1499 1884 2214 0
1 8 12 18 29 38 52 73 95 105 132 174 234 308 335 527 587 818 950 1500 1885 2215 0
2 4 13 19 30 39 53 74 76 106 133 175 235 309 336 528 588 819 951 1501 1886 2216 0
3 5 14 20 31 40 54 75 77 107 134 176 236 310 337 529 589 820 952 1502 1887 2217 0
1 6 9 21 23 41 55 58 78 108 135 177 237 311 338 530 590 821 953 1503 1888 2218 0
2 7 10 22 24 42 56 59 79 109 136 178 238 312 339 531 591 822 954 1504 1889 2219 0
3 8 11 15 25 32 57 60 80 110 137 179 195 313 340 532 592 823 955 1505 1890 2220 0
1 4 12 16 26 33 43 61 81 111 138 180 196 314 341 533 593 824 956 1506 1891 2221 0
2 5 13 17 27 34 44 62 82 112 139 181 197 315 342 534 594 825 957 1507 1892 2222 0
3 6 14 18 28 35 45 63 83 113 140 182 198 316 343 535 595 826 958 1508 1893 2223 0
1 7 9 19 29 36 46 64 84 114 141 183 199 317 344 536 596 827 959 1509 1894 2224 0
2 8 10 20 30 37 47 65 85 115 142 184 200 318 345 537 597 828 960 1510 1895 2225 0
3 4 11 21 31 38 48 66 86 116 143 185 201 319 346 538 598 829 961 1511 1896 2226 0
1 5 12 22 23 39 49 67 87 117 144 186 202 320 347 539 599 830 962 1512 1897 2227 0
2 6 13 15 24 40 50 68 88 118 145 187 203 321 348 540 600 831 963 1513 1898 2228 0
3 7 14 16 25 41 51 69 89 119 146 188 204 322 349 541 601 832 964 1514 1899 2229 0
1 8 9 17 26 42 52 70 90 120 147 189 205 323 350 542 602 833 965 1515 1900 2230 0
2 4 10 18 27 32 53 71 91 121 148 190 206 324 351 543 603 834 966 1516 1901 2231 0
3 5 11 19 28 33 54 72 92 122 149 191 207 325 352 544 604 835 967 1517 1902 2232 0
1 6 12 20 29 34 55 73 93 123 150 192 208 326 353 545 605 836 968 1518 1903 2233 0
2 7 13 21 30 35 56 74 94 124 151 193 209 327 354 546 606 837 969 1519 1904 2234 0
3 8 14 22 31 36 57 75 95 125 152 194 210 328 355 547 607 838 970 1520 1905 2235 0
1 4 9 15 23 37 43 58 76 96 153 159 211 239 356 428 608 839 971 1521 1906 2236 0
2 5 10 16 24 38 44 59 77 97 154 160 212 240 357 429 609 840 972 1522 1907 2237 0
3 6 11 17 25 39 45 60 78 98 155 161 213 241 358 430 610 841 973 1523 1908 2238 0
1 7 12 18 26 40 46 61 79 99 156 162 214 242 359 431 611 842 974 1524 1909 2239 0
2 8 13 19 27 41 47 62 80 100 157 163 215 243 360 432 612 843 975 1525 1910 2240 0
3 4 14 20 28 42 48 63 81 101 158 164 216 244 361 433 613 844 976 1526 1911 2241 0
1 5 9 21 29 32 49 64 82 102 126 165 217 245 362 434 614 845 977 1527 1912 2242 0
2 6 10 22 30 33 50 65 83 103 127 166 218 246 363 435 615 846 978 1528 1913 2243 0
3 7 11 15 31 34 51 66 84 104 128 167 219 247 364 436 616 847 979 1529 1914 2244 0
1 8 12 16 23 35 52 67 85 105 129 168 220 248 365 437 617 848 980 1530 1915 2245 0
2 4 13 17 24 36 53 68 86 106 130 169 221 249 366 438 618 849 981 1531 1916 2246 0
3 5 14 18 25 37 54 69 87 107 131 170 222 250 367 439 619 850 982 1532 1917 2247 0
1 6 9 19 26 38 55 70 88 108 132 171 223 251 368 440 620 851 983 1533 1918 2248 0
2 7 10 20 27 39 56 71 89 109 133 172 224 252 369 441 621 852 984 1534 1919 2249 0
3 8 11 21 28 40 57 72 90 110 134 173 225 253 370 442 622 853 985 1535 1920 2250 0
1 4 12 22 29 41 43 73 91 111 135 174 226 254 371 443 623 854 986 1536 1921 2251 0
2 5 13 15 30 42 44 74 92 112 136 175 227 255 372 444 624 855 987 1537 1922 2252 0
3 6 14 16 31 32 45 75 93 113 137 176 228 256 373 445 625 856 988 1538 1923 2253 0
1 7 9 17 23 33 46 58 94 114 138 177 229 257 374 446 626 857 989 1539 1924 2254 0
2 8 10 18 24 34 47 59 95 115 139 178 230 258 375 447 627 858 990 1540 1925 2255 0
3 4 11 19 25 35 48 60 76 116 140 179 231 259 376 448 628 859 991 1541 1926 2256 0
1 5 12 20 26 36 49 61 77 117 141 180 232 260 377 449 629 860 992 1542 1927 2257 0
2 6 13 21 27 37 50 62 78 118 142 181 233 261 378 450 630 861 993 1543 1928 2258 0
3 7 14 22 28 38 51 63 79 119 143 182 234 262 379 451 631 862 994 1544 1929 2259 0
1 8 9 15 29 39 52 64 80 120 144 183 235 263 380 452 632 863 995 1545 1930 2260 0
2 4 10 16 30 40 53 65 81 121 145 184 236 264 381 453 633 864 996 1546 1931 2261 0
3 5 11 17 31 41 54 66 82 122 146 185 237 265 382 454 634 865 997 1547 1932 2262 0
1 6 12 18 23 42 55 67 83 123 147 186 238 266 383 455 635 866 998 1548 1933 2263 0
2 7 13 19 24 32 56 68 84 124 148 187 195 267 384 456 636 867 999 1549 1934 2264 0
3 8 14 20 25 33 57 69 85 125 149 188 196 268 385 457 637 868 1000 1550 1935 2265 0
1 4 9 21 26 34 43 70 86 96 150 189 197 269 386 458 638 869 1001 1551 1936 2266 0
2 5 10 22 27 35 44 71 87 97 151 190 198 270 387 459 639 870 1002 1552 1937 2267 0
3 6 11 15 28 36 45 72 88 98 152 191 199 271 388 460 640 871 1003 1553 1938 2268 0
1 7 12 16 29 37 46 73 89 99 153 192 200 272 389 461 641 872 1004 1554 1939 2269 0
2 8 13 17 30 38 47 74 90 100 154 193 201 273 390 462 642 873 1005 1555 1940 2270 0
3 4 14 18 31 39 48 75 91 101 155 194 202 274 391 463 643 874 1006 1556 1941 2271 0
1 5 9 19 23 40 49 58 92 102 156 159 203 275 392 464 644 875 1007 1557 1942 2272 0
2 6 10 20 24 41 50 59 93 103 157 160 204 276 393 465 645 876 1008 1558 1943 2273 0
3 7 11 21 25 42 51 60 94 104 158 161 205 277 394 466 646 877 1009 1559 1944 2274 0
1 8 12 22 26 32 52 61 95 105 126 162 206 278 395 467 647 878 1010 1560 1945 2275 0
2 4 13 15 27 33 53 62 76 106 127 163 207 279 396 468 648 879 1011 1561 1946 2276 0
3 5 14 16 28 34 54 63 77 107 128 164 208 280 397 469 649 880 1012 1562 1947 2277 0
1 6 9 17 29 35 55 64 78 108 129 165 209 281 398 470 650 881 1013 1563 1948 2278 0
2 7 10 18 30 36 56 65 79 109 130 166 210 282 399 471 651 882 1014 1564 1949 2279 0
3 8 11 19 31 37 57 66 80 110 131 167 211 283 400 472 652 883 1015 1565 1950 2280 0
1 4 12 20 23 38 43 67 81 111 132 168 212 284 401 473 653 884 1016 1566 1951 2281 0
2 5 13 21 24 39 44 68 82 112 133 169 213 285 402 474 654 885 1017 1567 1952 2282 0
3 6 14 22 25 40 45 69 83 113 134 170 214 286 403 475 655 886 1018 1568 1953 2283 0
1 7 9 15 26 41 46 70 84 114 135 171 215 287 404 476 656 887 1019 1569 1954 2284 0
2 8 10 16 27 42 47 71 85 115 136 172 216 288 405 477 657 888 1020 1570 1955 2285 0
3 4 11 17 28 32 48 72 86 116 137 173 217 289 406 478 658 889 1021 1571 1956 2286 0
1 5 12 18 29 33 49 73 87 117 138 174 218 290 407 479 659 890 1022 1572 1957 2287 0
2 6 13 19 30 34 50 74 88 118 139 175 219 291 408 480 660 891 1023 1573 1958 2288 0
3 7 14 20 31 35 51 75 89 119 140 176 220 292 409 481 661 892 1024 1574 1959 2289 0
1 8 9 21 23 36 52 58 90 120 141 177 221 293 410 482 662 893 1025 1575 1960 2290 0
2 4 10 22 24 37 53 59 91 121 142 178 222 294 411 483 663 894 1026 1576 1961 2291 0
3 5 11 15 25 38 54 60 92 122 143 179 223 295 412 484 664 895 1027 1577 1962 2292 0
1 6 12 16 26 39 55 61 93 123 144 180 224 296 413 485 665 896 1028 1578 1963 2293 0
2 7 13 17 27 40 56 62 94 124 145 181 225 297 414 486 666 897 1029 1579 1964 2294 0
3 8 14 18 28 41 57 63 95 125 146 182 226 298 415 487 667 898 1030 1580 1965 2295 0
1 4 9 19 29 42 43 64 76 96 147 183 227 299 416 488 668 899 1031 1581 1966 2296 0
2 5 10 20 30 32 44 65 77 97 148 184 228 300 417 489 669 900 1032 1582 1967 2297 0
3 6 11 21 31 33 45 66 78 98 149 185 229 301 418 490 670 901 1033 1583 1968 2298 0
1 7 12 22 23 34 46 67 79 99 150 186 230 302 419 491 671 902 1034 1584 1969 2299 0
2 8 13 15 24 35 47 68 80 100 151 187 231 303 420 492 672 903 1035 1585 1970 2300 0
3 4 14 16 25 36 48 69 81 101 152 188 232 304 421 493 673 904 1036 1586 1971 2301 0
1 5 9 17 26 37 49 70 82 102 153 189 233 305 422 494 674 905 1037 1587 1972 2302 0
2 6 10 18 27 38 50 71 83 103 154 190 234 306 423 495 675 906 1038 1588 1973 2303 0
3 7 11 19 28 39 51 72 84 104 155 191 235 307 424 496 676 907 1039 1589 1974 2304 0
1 8 12 20 29 40 52 73 85 105 156 192 236 308 425 497 677 908 1040 1590 1975 2305 0
2 4 13 21 30 41 53 74 86 106 157 193 237 309 426 498 678 909 1041 1591 1976 2306 0
3 5 14 22 31 42 54 75 87 107 158 194 238 310 427 499 679 910 1042 1592 1977 2307 0
1 6 9 15 23 32 55 58 88 108 126 159 195 311 329 500 680 713 1043 1593 1978 2308 0
2 7 10 16 24 33 56 59 89 109 127 160 196 312 330 501 681 714 1044 1594 1979 2309 0
3 8 11 17 25 34 57 60 90 110 128 161 197 313 331 502 682 715 1045 1595 1980 2310 0
1 4 12 18 26 35 43 61 91 111 129 162 198 314 332 503 683 716 1046 1596 1981 2311 0
2 5 13 19 27 36 44 62 92 112 130 163 199 315 333 504 684 717 1047 1597 1982 2312 0
3 6 14 20 28 37 45 63 93 113 131 164 200 316 334 505 685 718 1048 1598 1983 2313 0
1 7 9 21 29 38 46 64 94 114 132 165 201 317 335 506 686 719 1049 1599 1984 2314 0
2 8 10 22 30 39 47 65 95 115 133 166 202 318 336 507 687 720 1050 1600 1985 2315 0
3 4 11 15 31 40 48 66 76 116 134 167 203 319 337 508 688 721 1051 1601 1986 2316 0
1 5 12 16 23 41 49 67 77 117 135 168 204 320 338 509 689 722 1052 1602 1987 2317 0
2 6 13 17 24 42 50 68 78 118 136 169 205 321 339 510 690 723 1053 1603 1988 2318 0
3 7 14 18 25 32 51 69 79 119 137 170 206 322 340 511 691 724 1054 1604 1989 2319 0
1 8 9 19 26 33 52 70 80 120 138 171 207 323 341 512 692 725 1055 1605 1990 2320 0
2 4 10 20 27 34 53 71 81 121 139 172 208 324 342 513 693 726 1056 1606 1991 2321 0
3 5 11 21 28 35 54 72 82 122 140 173 209 325 343 514 694 727 1057 1607 1992 2322 0
1 6 12 22 29 36 55 73 83 123 141 174 210 326 344 515 695 728 1058 1608 1993 2323 0
2 7 13 15 30 37 56 74 84 124 142 175 211 327 345 516 696 729 1059 1609 1994 2324 0
3 8 14 16 31 38 57 75 85 125 143 176 212 328 346 517 697 730 1060 1610 1995 2325 0
1 4 9 17 23 39 43 58 86 96 144 177 213 239 347 518 698 731 1061 1611 1996 2326 0
2 5 10 18 24 40 44 59 87 97 145 178 214 240 348 519 699 732 1062 1612 1997 2327 0
3 6 11 19 25 41 45 60 88 98 146 179 215 241 349 520 700 733 1063 1613 1998 2328 0
1 7 12 20 26 42 46 61 89 99 147 180 216 242 350 521 701 734 1064 1614 1999 2329 0
2 8 13 21 27 32 47 62 90 100 148 181 217 243 351 522 702 735 1065 1615 2000 2330 0
3 4 14 22 28 33 48 63 91 101 149 182 218 244 352 523 703 736 1066 1616 2001 2331 0
1 5 9 15 29 34 49 64 92 102 150 183 219 245 353 524 704 737 1067 1617 2002 2332 0
2 6 10 16 30 35 50 65 93 103 151 184 220 246 354 525 705 738 1068 1618 2003 2333 0
3 7 11 17 31 36 51 66 94 104 152 185 221 247 355 526 706 739 1069 1619 2004 2334 0
1 8 12 18 23 37 52 67 95 105 153 186 222 248 356 527 707 740 1070 1620 2005 2335 0
2 4 13 19 24 38 53 68 76 106 154 187 223 249 357 528 708 741 1071 1621 2006 2336 0
3 5 14 20 25 39 54 69 77 107 155 188 224 250 358 529 709 742 1072 1622 2007 2337 0
1 6 9 21 26 40 55 70 78 108 156 189 225 251 359 530 710 743 1073 1623 2008 2338 0
2 7 10 22 27 41 56 71 79 109 157 190 226 252 360 531 711 744 1074 1624 2009 2339 0
3 8 11 15 28 42 57 72 80 110 158 191 227 253 361 532 712 745 1075 1625 2010 2340 0
1 4 12 16 29 32 43 73 81 111 126 192 228 254 362 533 548 746 1076 1626 2011 2341 0
2 5 13 17 30 33 44 74 82 112 127 193 229 255 363 534 549 747 1077 1627 2012 2342 0
3 6 14 18 31 34 45 75 83 113 128 194 230 256 364 535 550 748 1078 1628 2013 2343 0
1 7 9 19 23 35 46 58 84 114 129 159 231 257 365 536 551 749 1079 1629 2014 2344 0
2 8 10 20 24 36 47 59 85 115 130 160 232 258 366 537 552 750 1080 1630 2015 2345 0
3 4 11 21 25 37 48 60 86 116 131 161 233 259 367 538 553 751 1081 1631 2016 2346 0
1 5 12 22 26 38 49 61 87 117 132 162 234 260 368 539 554 752 1082 1632 2017 2347 0
2 6 13 15 27 39 50 62 88 118 133 163 235 261 369 540 555 753 1083 1633 2018 2348 0
3 7 14 16 28 40 51 63 89 119 134 164 236 262 370 541 556 754 1084 1634 2019 2349 0
1 8 9 17 29 41 52 64 90 120 135 165 237 263 371 542 557 755 1085 1635 2020 2350 0
2 4 10 18 30 42 53 65 91 121 136 166 238 264 372 543 558 756 1086 1636 2021 2351 0
3 5 11 19 31 32 54 66 92 122 137 167 195 265 373 544 559 757 1087 1637 2022 2352 0
1 6 12 20 23 33 55 67 93 123 138 168 196 266 374 545 560 758 1088 1638 2023 2353 0
2 7 13 21 24 34 56 68 94 124 139 169 197 267 375 546 561 759 1089 1639 2024 2354 0
3 8 14 22 25 35 57 69 95 125 140 170 198 268 376 547 562 760 1090 1640 2025 2355 0
1 4 9 15 26 36 43 70 76 96 141 171 199 269 377 428 563 761 1091 1641 2026 2356 0
2 5 10 16 27 37 44 71 77 97 142 172 200 270 378 429 564 762 1092 1642 2027 2357 0
3 6 11 17 28 38 45 72 78 98 143 173 201 271 379 430 565 763 1093 1643 2028 2358 0
1 7 12 18 29 39 46 73 79 99 144 174 202 272 380 431 566 764 1094 1644 2029 2359 0
2 8 13 19 30 40 47 74 80 100 145 175 203 273 381 432 567 765 1095 1645 2030 2360 0
3 4 14 20 31 41 48 75 81 101 146 176 204 274 382 433 568 766 1096 1646 2031 2361 0
1 5 9 21 23 42 49 58 82 102 147 177 205 275 383 434 569 767 1097 1647 2032 2362 0
2 6 10 22 24 32 50 59 83 103 148 178 206 276 384 435 570 768 1098 1648 2033 2363 0
3 7 11 15 25 33 51 60 84 104 149 179 207 277 385 436 571 769 1099 1649 2034 2364 0
1 8 12 16 26 34 52 61 85 105 150 180 208 278 386 437 572 770 1100 1650 2035 2365 0
2 4 13 17 27 35 53 62 86 106 151 181 209 279 387 438 573 771 1101 1651 2036 2366 0
3 5 14 18 28 36 54 63 87 107 152 182 210 280 388 439 574 772 1102 1652 2037 2367 0
1 6 9 19 29 37 55 64 88 108 153 183 211 281 389 440 575 773 1103 1653 2038 2368 0
2 7 10 20 30 38 56 65 89 109 154 184 212 282 390 441 576 774 1104 1654 2039 2369 0
3 8 11 21 31 39 57 66 90 110 155 185 213 283 391 442 577 775 1105 1655 2040 2370 0
1 4 12 22 23 40 43 67 91 111 156 186 214 284 392 443 578 776 1106 1656 2041 2371 0
2 5 13 15 24 41 44 68 92 112 157 187 215 285 393 444 579 777 1107 1657 2042 2372 0
3 6 14 16 25 42 45 69 93 113 158 188 216 286 394 445 580 778 1108 1658 2043 2373 0
1 7 9 17 26 32 46 70 94 114 126 189 217 287 395 446 581 779 1109 1659 2044 2374 0
2 8 10 18 27 33 47 71 95 115 127 190 218 288 396 447 582 780 1110 1660 2045 2375 0
3 4 11 19 28 34 48 72 76 116 128 191 219 289 397 448 583 781 1111 1661 2046 2376 0
1 5 12 20 29 35 49 73 77 117 129 192 220 290 398 449 584 782 1112 1662 2047 2377 0
2 6 13 21 30 36 50 74 78 118 130 193 221 291 399 450 585 783 1113 1663 2048 2378 0
3 7 14 22 31 37 51 75 79 119 131 194 222 292 400 451 586 784 1114 1664 2049 2379 0
1 8 9 15 23 38 52 58 80 120 132 159 223 293 401 452 587 785 1115 1665 2050 2380 0
2 4 10 16 24 39 53 59 81 121 133 160 224 294 402 453 588 786 1116 1666 2051 2381 0
3 5 11 17 25 40 54 60 82 122 134 161 225 295 403 454 589 787 1117 1667 2052 2382 0
1 6 12 18 26 41 55 61 83 123 135 162 226 296 404 455 590 788 1118 1668 2053 2383 0
2 7 13 19 27 42 56 62 84 124 136 163 227 297 405 456 591 789 1119 1669 2054 2384 0
3 8 14 20 28 32 57 63 85 125 137 164 228 298 406 457 592 790 1120 1670 2055 2385 0
1 4 9 21 29 33 43 64 86 96 138 165 229 299 407 458 593 791 1121 1671 2056 2386 0
2 5 10 22 30 34 44 65 87 97 139 166 230 300 408 459 594 792 1122 1672 2057 2387 0
3 6 11 15 31 35 45 66 88 98 140 167 231 301 409 460 595 793 1123 1673 2058 2388 0
1 7 12 16 23 36 46 67 89 99 141 168 232 302 410 461 596 794 1124 1674 2059 2389 0
2 8 13 17 24 37 47 68 90 100 142 169 233 303 411 462 597 795 1125 1675 2060 2390 0
3 4 14 18 25 38 48 69 91 101 143 170 234 304 412 463 598 796 1126 1676 2061 2391 0
1 5 9 19 26 39 49 70 92 102 144 171 235 305 413 464 599 797 1127 1677 2062 2392 0
2 6 10 20 27 40 50 71 93 103 145 172 236 306 414 465 600 798 1128 1678 2063 2393 0
3 7 11 21 28 41 51 72 94 104 146 173 237 307 415 466 601 799 1129 1679 2064 2394 0
1 8 12 22 29 42 52 73 95 105 147 174 238 308 416 467 602 800 1130 1680 2065 2395 0
2 4 13 15 30 32 53 74 76 106 148 175 195 309 417 468 603 801 1131 1241 2066 2396 0
3 5 14 16 31 33 54 75 77 107 149 176 196 310 418 469 604 802 1132 1242 2067 2397 0
1 6 9 17 23 34 55 58 78 108 150 177 197 311 419 470 605 803 1133 1243 2068 2398 0
2 7 10 18 24 35 56 59 79 109 151 178 198 312 420 471 606 804 1134 1244 2069 2399 0
3 8 11 19 25 36 57 60 80 110 152 179 199 313 421 472 607 805 1135 1245 2070 2400 0
1 4 12 20 26 37 43 61 81 111 153 180 200 314 422 473 608 806 1136 1246 2071 2401 0
2 5 13 21 27 38 44 62 82 112 154 181 201 315 423 474 609 807 1137 1247 2072 2402 0
3 6 14 22 28 39 45 63 83 113 155 182 202 316 424 475 610 808 1138 1248 2073 2403 0
1 7 9 15 29 40 46 64 84 114 156 183 203 317 425 476 611 809 1139 1249 2074 2404 0
2 8 10 16 30 41 47 65 85 115 157 184 204 318 426 477 612 810 1140 1250 2075 2405 0
3 4 11 17 31 42 48 66 86 116 158 185 205 319 427 478 613 811 1141 1251 2076 2406 0
1 5 12 18 23 32 49 67 87 117 126 186 206 320 329 479 614 812 1142 1252 2077 2407 0
2 6 13 19 24 33 50 68 88 118 127 187 207 321 330 480 615 813 1143 1253 2078 2408 0
3 7 14 20 25 34 51 69 89 119 128 188 208 322 331 481 616 814 1144 1254 2079 2409 0
1 8 9 21 26 35 52 70 90 120 129 189 209 323 332 482 617 815 1145 1255 2080 2410 0
2 4 10 22 27 36 53 71 91 121 130 190 210 324 333 483 618 816 1146 1256 2081 2411 0
3 5 11 15 28 37 54 72 92 122 131 191 211 325 334 484 619 817 1147 1257 2082 2412 0
1 6 12 16 29 38 55 73 93 123 132 192 212 326 335 485 620 818 1148 1258 2083 2413 0
2 7 13 17 30 39 56 74 94 124 133 193 213 327 336 486 621 819 1149 1259 2084 2414 0
3 8 14 18 31 40 57 75 95 125 134 194 214 328 337 487 622 820 1150 1260 2085 2415 0
1 4 9 19 23 41 43 58 76 96 135 159 215 239 338 488 623 821 1151 1261 2086 2416 0
2 5 10 20 24 42 44 59 77 97 136 160 216 240 339 489 624 822 1152 1262 2087 2417 0
3 6 11 21 25 32 45 60 78 98 137 161 217 241 340 490 625 823 1153 1263 2088 2418 0
1 7 12 22 26 33 46 61 79 99 138 162 218 242 341 491 626 824 1154 1264 2089 2419 0
2 8 13 15 27 34 47 62 80 100 139 163 219 243 342 492 627 825 1155 1265 2090 2420 0
3 4 14 16 28 35 48 63 81 101 140 164 220 244 343 493 628 826 1156 1266 2091 2421 0
1 5 9 17 29 36 49 64 82 102 141 165 221 245 344 494 629 827 1157 1267 2092 2422 0
2 6 10 18 30 37 50 65 83 103 142 166 222 246 345 495 630 828 1158 1268 2093 2423 0
3 7 11 19 31 38 51 66 84 104 143 167 223 247 346 496 631 829 1159 1269 2094 2424 0
1 8 12 20 23 39 52 67 85 105 144 168 224 248 347 497 632 830 1160 1270 2095 2425 0
2 4 13 21 24 40 53 68 86 106 145 169 225 249 348 498 633 831 1161 1271 2096 2426 0
3 5 14 22 25 41 54 69 87 107 146 170 226 250 349 499 634 832 1162 1272 2097 2427 0
1 6 9 15 26 42 55 70 88 108 147 171 227 251 350 500 635 833 1163 1273 2098 2428 0
2 7 10 16 27 32 56 71 89 109 148 172 228 252 351 501 636 834 1164 1274 2099 2429 0
3 8 11 17 28 33 57 72 90 110 149 173 229 253 352 502 637 835 1165 1275 2100 2430 0
1 4 12 18 29 34 43 73 91 111 150 174 230 254 353 503 638 836 1166 1276 2101 2431 0
2 5 13 19 30 35 44 74 92 112 151 175 231 255 354 504 639 837 1167 1277 2102 2432 0
3 6 14 20 31 36 45 75 93 113 152 176 232 256 355 505 640 838 1168 1278 2103 2433 0
1 7 9 21 23 37 46 58 94 114 153 177 233 257 356 506 641 839 1169 1279 2104 2434 0
2 8 10 22 24 38 47 59 95 115 154 178 234 258 357 507 642 840 1170 1280 2105 2435 0
3 4 11 15 25 39 48 60 76 116 155 179 235 259 358 508 643 841 1171 1281 2106 2436 0
1 5 12 16 26 40 49 61 77 117 156 180 236 260 359 509 644 842 1172 1282 2107 2437 0
2 6 13 17 27 41 50 62 78 118 157 181 237 261 360 510 645 843 1173 1283 2108 2438 0
3 7 14 18 28 42 51 63 79 119 158 182 238 262 361 511 646 844 1174 1284 2109 2439 0
1 8 9 19 29 32 52 64 80 120 126 183 195 263 362 512 647 845 1175 1285 2110 2440 0
2 4 10 20 30 33 53 65 81 121 127 184 196 264 363 513 648 846 1176 1286 2111 2441 0
3 5 11 21 31 34 54 66 82 122 128 185 197 265 364 514 649 847 1177 1287 2112 2442 0
1 6 12 22 23 35 55 67 83 123 129 186 198 266 365 515 650 848 1178 1288 2113 2443 0
2 7 13 15 24 36 56 68 84 124 130 187 199 267 366 516 651 849 1179 1289 2114 2444 0
3 8 14 16 25 37 57 69 85 125 131 188 200 268 367 517 652 850 1180 1290 2115 2445 0
1 4 9 17 26 38 43 70 86 96 132 189 201 269 368 518 653 851 1181 1291 2116 2446 0
2 5 10 18 27 39 44 71 87 97 133 190 202 270 369 519 654 852 1182 1292 2117 2447 0
3 6 11 19 28 40 45 72 88 98 134 191 203 271 370 520 655 853 1183 1293 2118 2448 0
1 7 12 20 29 41 46 73 89 99 135 192 204 272 371 521 656 854 1184 1294 2119 2449 0
2 8 13 21 30 42 47 74 90 100 136 193 205 273 372 522 657 855 1185 1295 2120 2450 0
3 4 14 22 31 32 48 75 91 101 137 194 206 274 373 523 658 856 1186 1296 2121 2451 0
1 5 9 15 23 33 49 58 92 102 138 159 207 275 374 524 659 857 1187 1297 2122 2452 0
2 6 10 16 24 34 50 59 93 103 139 160 208 276 375 525 660 858 1188 1298 2123 2453 0
3 7 11 17 25 35 51 60 94 104 140 161 209 277 376 526 661 859 1189 1299 2124 2454 0
1 8 12 18 26 36 52 61 95 105 141 162 210 278 377 527 662 860 1190 1300 2125 2455 0
2 4 13 19 27 37 53 62 76 106 142 163 211 279 378 528 663 861 1191 1301 2126 2456 0
3 5 14 20 28 38 54 63 77 107 143 164 212 280 379 529 664 862 1192 1302 2127 2457 0
1 6 9 21 29 39 55 64 78 108 144 165 213 281 380 530 665 863 1193 1303 2128 2458 0
2 7 10 22 30 40 56 65 79 109 145 166 214 282 381 531 666 864 1194 1304 2129 2459 0
3 8 11 15 31 41 57 66 80 110 146 167 215 283 382 532 667 865 1195 1305 2130 2460 0
1 4 12 16 23 42 43 67 81 111 147 168 216 284 383 533 668 866 1196 1306 2131 2461 0
2 5 13 17 24 32 44 68 82 112 148 169 217 285 384 534 669 867 1197 1307 2132 2462 0
3 6 14 18 25 33 45 69 83 113 149 170 218 286 385 535 670 868 1198 1308 2133 2463 0
1 7 9 19 26 34 46 70 84 114 150 171 219 287 386 536 671 869 1199 1309 2134 2464 0
2 8 10 20 27 35 47 71 85 115 151 172 220 288 387 537 672 870 1200 1310 2135 2465 0
3 4 11 21 28 36 48 72 86 116 152 173 221 289 388 538 673 871 1201 1311 2136 2466 0
1 5 12 22 29 37 49 73 87 117 153 174 222 290 389 539 674 872 1202 1312 2137 2467 0
2 6 13 15 30 38 50 74 88 118 154 175 223 291 390 540 675 873 1203 1313 2138 2468 0
3 7 14 16 31 39 51 75 89 119 155 176 224 292 391 541 676 874 1204 1314 2139 2469 0
1 8 9 17 23 40 52 58 90 120 156 177 225 293 392 542 677 875 1205 1315 2140 2470 0
2 4 10 18 24 41 53 59 91 121 157 178 226 294 393 543 678 876 1206 1316 2141 2471 0
3 5 11 19 25 42 54 60 92 122 158 179 227 295 394 544 679 877 1207 1317 2142 2472 0
1 6 12 20 26 32 55 61 93 123 126 180 228 296 395 545 680 878 1208 1318 2143 2473 0
2 7 13 21 27 33 56 62 94 124 127 181 229 297 396 546 681 879 1209 1319 2144 2474 0
3 8 14 22 28 34 57 63 95 125 128 182 230 298 397 547 682 880 1210 1320 2145 2475 0
1 4 9 15 29 35 43 64 76 96 129 183 231 299 398 428 683 881 1211 1321 2146 2476 0
2 5 10 16 30 36 44 65 77 97 130 184 232 300 399 429 684 882 1212 1322 2147 2477 0
3 6 11 17 31 37 45 66 78 98 131 185 233 301 400 430 685 883 1213 1323 2148 2478 0
1 7 12 18 23 38 46 67 79 99 132 186 234 302 401 431 686 884 1214 1324 2149 2479 0
2 8 13 19 24 39 47 68 80 100 133 187 235 303 402 432 687 885 1215 1325 2150 2480 0
3 4 14 20 25 40 48 69 81 101 134 188 236 304 403 433 688 886 1216 1326 2151 2481 0
1 5 9 21 26 41 49 70 82 102 135 189 237 305 404 434 689 887 1217 1327 2152 2482 0
2 6 10 22 27 42 50 71 83 103 136 190 238 306 405 435 690 888 1218 1328 2153 2483 0
3 7 11 15 28 32 51 72 84 104 137 191 195 307 406 436 691 889 1219 1329 2154 2484 0
1 8 12 16 29 33 52 73 85 105 138 192 196 308 407 437 692 890 1220 1330 2155 2485 0
2 4 13 17 30 34 53 74 86 106 139 193 197 309 408 438 693 891 1221 1331 2156 2486 0
3 5 14 18 31 35 54 75 87 107 140 194 198 310 409 439 694 892 1222 1332 2157 2487 0
1 6 9 19 23 36 55 58 88 108 141 159 199 311 410 440 695 893 1223 1333 2158 2488 0
2 7 10 20 24 37 56 59 89 109 142 160 200 312 411 441 696 894 1224 1334 2159 2489 0
3 8 11 21 25 38 57 60 90 110 143 161 201 313 412 442 697 895 1225 1335 2160 2490 0
1 4 12 22 26 39 43 61 91 111 144 162 202 314 413 443 698 896 1226 1336 2161 2491 0
2 5 13 15 27 40 44 62 92 112 145 163 203 315 414 444 699 897 1227 1337 2162 2492 0
3 6 14 16 28 41 45 63 93 113 146 164 204 316 415 445 700 898 1228 1338 2163 2493 0
1 7 9 17 29 42 46 64 94 114 147 165 205 317 416 446 701 899 1229 1339 2164 2494 0
2 8 10 18 30 32 47 65 95 115 148 166 206 318 417 447 702 900 1230 1340 2165 2495 0
3 4 11 19 31 33 48 66 76 116 149 167 207 319 418 448 703 901 1231 1341 2166 2496 0
1 5 12 20 23 34 49 67 77 117 150 168 208 320 419 449 704 902 1232 1342 2167 2497 0
2 6 13 21 24 35 50 68 78 118 151 169 209 321 420 450 705 903 1233 1343 2168 2498 0
3 7 14 22 25 36 51 69 79 119 152 170 210 322 421 451 706 904 1234 1344 2169 2499 0
1 8 9 15 26 37 52 70 80 120 153 171 211 323 422 452 707 905 1235 1345 2170 2500 0
2 4 10 16 27 38 53 71 81 121 154 172 212 324 423 453 708 906 1236 1346 2171 2501 0
3 5 11 17 28 39 54 72 82 122 155 173 213 325 424 454 709 907 1237 1347 2172 2502 0
1 6 12 18 29 40 55 73 83 123 156 174 214 326 425 455 710 908 1238 1348 2173 2503 0
2 7 13 19 30 41 56 74 84 124 157 175 215 327 426 456 711 909 1239 1349 2174 2504 0
3 8 14 20 31 42 57 75 85 125 158 176 216 328 427 457 712 910 1240 1350 2175 2505 0
1 4 9 21 23 32 43 58 86 96 126 177 217 239 329 458 548 713 911 1351 1681 2506 0
2 5 10 22 24 33 44 59 87 97 127 178 218 240 330 459 549 714 912 1352 1682 2507 0
3 6 11 15 25 34 45 60 88 98 128 179 219 241 331 460 550 715 913 1353 1683 2508 0
1 7 12 16 26 35 46 61 89 99 129 180 220 242 332 461 551 716 914 1354 1684 2509 0
2 8 13 17 27 36 47 62 90 100 130 181 221 243 333 462 552 717 915 1355 1685 2510 0
3 4 14 18 28 37 48 63 91 101 131 182 222 244 334 463 553 718 916 1356 1686 2511 0
1 5 9 19 29 38 49 64 92 102 132 183 223 245 335 464 554 719 917 1357 1687 2512 0
2 6 10 20 30 39 50 65 93 103 133 184 224 246 336 465 555 720 918 1358 1688 2513 0
3 7 11 21 31 40 51 66 94 104 134 185 225 247 337 466 556 721 919 1359 1689 2514 0
1 8 12 22 23 41 52 67 95 105 135 186 226 248 338 467 557 722 920 1360 1690 2515 0
2 4 13 15 24 42 53 68 76 106 136 187 227 249 339 468 558 723 921 1361 1691 2516 0
3 5 14 16 25 32 54 69 77 107 137 188 228 250 340 469 559 724 922 1362 1692 2517 0
1 6 9 17 26 33 55 70 78 108 138 189 229 251 341 470 560 725 923 1363 1693 2518 0
2 7 10 18 27 34 56 71 79 109 139 190 230 252 342 471 561 726 924 1364 1694 2519 0
3 8 11 19 28 35 57 72 80 110 140 191 231 253 343 472 562 727 925 1365 1695 2520 0
1 4 12 20 29 36 43 73 81 111 141 192 232 254 344 473 563 728 926 1366 1696 2521 0
2 5 13 21 30 37 44 74 82 112 142 193 233 255 345 474 564 729 927 1367 1697 2522 0
3 6 14 22 31 38 45 75 83 113 143 194 234 256 346 475 565 730 928 1368 1698 2523 0
1 7 9 15 23 39 46 58 84 114 144 159 235 257 347 476 566 731 929 1369 1699 2524 0
2 8 10 16 24 40 47 59 85 115 145 160 236 258 348 477 567 732 930 1370 1700 2525 0
3 4 11 17 25 41 48 60 86 116 146 161 237 259 349 478 568 733 931 1371 1701 2526 0
1 5 12 18 26 42 49 61 87 117 147 162 238 260 350 479 569 734 932 1372 1702 2527 0
2 6 13 19 27 32 50 62 88 118 148 163 195 261 351 480 570 735 933 1373 1703 2528 0
3 7 14 20 28 33 51 63 89 119 149 164 196 262 352 481 571 736 934 1374 1704 2529 0
1 8 9 21 29 34 52 64 90 120 150 165 197 263 353 482 572 737 935 1375 1705 2530 0
2 4 10 22 30 35 53 65 91 121 151 166 198 264 354 483 573 738 936 1376 1706 2531 0
3 5 11 15 31 36 54 66 92 122 152 167 199 265 355 484 574 739 937 1377 1707 2532 0
1 6 12 16 23 37 55 67 93 123 153 168 200 266 356 485 575 740 938 1378 1708 2533 0
2 7 13 17 24 38 56 68 94 124 154 169 201 267 357 486 576 741 939 1379 1709 2534 0
3 8 14 18 25 39 57 69 95 125 155 170 202 268 358 487 577 742 940 1380 1710 2535 0
1 4 9 19 26 40 43 70 76 96 156 171 203 269 359 488 578 743 941 1381 1711 2536 0
2 5 10 20 27 41 44 71 77 97 157 172 204 270 360 489 579 744 942 1382 1712 2537 0
3 6 11 21 28 42 45 72 78 98 158 173 205 271 361 490 580 745 943 1383 1713 2538 0
1 7 12 22 29 32 46 73 79 99 126 174 206 272 362 491 581 746 944 1384 1714 2539 0
2 8 13 15 30 33 47 74 80 100 127 175 207 273 363 492 582 747 945 1385 1715 2540 0
3 4 14 16 31 34 48 75 81 101 128 176 208 274 364 493 583 748 946 1386 1716 2541 0
1 5 9 17 23 35 49 58 82 102 129 177 209 275 365 494 584 749 947 1387 1717 2542 0
2 6 10 18 24 36 50 59 83 103 130 178 210 276 366 495 585 750 948 1388 1718 2543 0
3 7 11 19 25 37 51 60 84 104 131 179 211 277 367 496 586 751 949 1389 1719 2544 0
1 8 12 20 26 38 52 61 85 105 132 180 212 278 368 497 587 752 950 1390 1720 2545 0
2 4 13 21 27 39 53 62 86 106 133 181 213 279 369 498 588 753 951 1391 1721 2546 0
3 5 14 22 28 40 54 63 87 107 134 182 214 280 370 499 589 754 952 1392 1722 2547 0
1 6 9 15 29 41 55 64 88 108 135 183 215 281 371 500 590 755 953 1393 1723 2548 0
2 7 10 16 30 42 56 65 89 109 136 184 216 282 372 501 591 756 954 1394 1724 2549 0
3 8 11 17 31 32 57 66 90 110 137 185 217 283 373 502 592 757 955 1395 1725 2550 0
1 4 12 18 23 33 43 67 91 111 138 186 218 284 374 503 593 758 956 1396 1726 2551 0
2 5 13 19 24 34 44 68 92 112 139 187 219 285 375 504 594 759 957 1397 1727 2552 0
3 6 14 20 25 35 45 69 93 113 140 188 220 286 376 505 595 760 958 1398 1728 2553 0
1 7 9 21 26 36 46 70 94 114 141 189 221 287 377 506 596 761 959 1399 1729 2554 0
2 8 10 22 27 37 47 71 95 115 142 190 222 288 378 507 597 762 960 1400 1730 2555 0
3 4 11 15 28 38 48 72 76 116 143 191 223 289 379 508 598 763 961 1401 1731 2556 0
1 5 12 16 29 39 49 73 77 117 144 192 224 290 380 509 599 764 962 1402 1732 2557 0
2 6 13 17 30 40 50 74 78 118 145 193 225 291 381 510 600 765 963 1403 1733 2558 0
3 7 14 18 31 41 51 75 79 119 146 194 226 292 382 511 601 766 964 1404 1734 2559 0
1 8 9 19 23 42 52 58 80 120 147 159 227 293 383 512 602 767 965 1405 1735 2560 0
2 4 10 20 24 32 53 59 81 121 148 160 228 294 384 513 603 768 966 1406 1736 2561 0
3 5 11 21 25 33 54 60 82 122 149 161 229 295 385 514 604 769 967 1407 1737 2562 0
1 6 12 22 26 34 55 61 83 123 150 162 230 296 386 515 605 770 968 1408 1738 2563 0
2 7 13 15 27 35 56 62 84 124 151 163 231 297 387 516 606 771 969 1409 1739 2564 0
3 8 14 16 28 36 57 63 85 125 152 164 232 298 388 517 607 772 970 1410 1740 2565 0
1 4 9 17 29 37 43 64 86 96 153 165 233 299 389 518 608 773 971 1411 1741 2566 0
2 5 10 18 30 38 44 65 87 97 154 166 234 300 390 519 609 774 972 1412 1742 2567 0
3 6 11 19 31 39 45 66 88 98 155 167 235 301 391 520 610 775 973 1413 1743 2568 0
1 7 12 20 23 40 46 67 89 99 156 168 236 302 392 521 611 776 974 1414 1744 2569 0
2 8 13 21 24 41 47 68 90 100 157 169 237 303 393 522 612 777 975 1415 1745 2570 0
3 4 14 22 25 42 48 69 91 101 158 170 238 304 394 523 613 778 976 1416 1746 2571 0
1 5 9 15 26 32 49 70 92 102 126 171 195 305 395 524 614 779 977 1417 1747 2572 0
2 6 10 16 27 33 50 71 93 103 127 172 196 306 396 525 615 780 978 1418 1748 2573 0
3 7 11 17 28 34 51 72 94 104 128 173 197 307 397 526 616 781 979 1419 1749 2574 0
1 8 12 18 29 35 52 73 95 105 129 174 198 308 398 527 617 782 980 1420 1750 2575 0
2 4 13 19 30 36 53 74 76 106 130 175 199 309 399 528 618 783 981 1421 1751 2576 0
3 5 14 20 31 37 54 75 77 107 131 176 200 310 400 529 619 784 982 1422 1752 2577 0
1 6 9 21 23 38 55 58 78 108 132 177 201 311 401 530 620 785 983 1423 1753 2578 0
2 7 10 22 24 39 56 59 79 109 133 178 202 312 402 531 621 786 984 1424 1754 2579 0
3 8 11 15 25 40 57 60 80 110 134 179 203 313 403 532 622 787 985 1425 1755 2580 0
1 4 12 16 26 41 43 61 81 111 135 180 204 314 404 533 623 788 986 1426 1756 2581 0
2 5 13 17 27 42 44 62 82 112 136 181 205 315 405 534 624 789 987 1427 1757 2582 0
3 6 14 18 28 32 45 63 83 113 137 182 206 316 406 535 625 790 988 1428 1758 2583 0
1 7 9 19 29 33 46 64 84 114 138 183 207 317 407 536 626 791 989 1429 1759 2584 0
2 8 10 20 30 34 47 65 85 115 139 184 208 318 408 537 627 792 990 1430 1760 2585 0
3 4 11 21 31 35 48 66 86 116 140 185 209 319 409 538 628 793 991 1431 1761 2586 0
1 5 12 22 23 36 49 67 87 117 141 186 210 320 410 539 629 794 992 1432 1762 2587 0
2 6 13 15 24 37 50 68 88 118 142 187 211 321 411 540 630 795 993 1433 1763 2588 0
3 7 14 16 25 38 51 69 89 119 143 188 212 322 412 541 631 796 994 1434 1764 2589 0
1 8 9 17 26 39 52 70 90 120 144 189 213 323 413 542 632 797 995 1435 1765 2590 0
2 4 10 18 27 40 53 71 91 121 145 190 214 324 414 543 633 798 996 1436 1766 2591 0
3 5 11 19 28 41 54 72 92 122 146 191 215 325 415 544 634 799 997 1437 1767 2592 0
1 6 12 20 29 42 55 73 93 123 147 192 216 326 416 545 635 800 998 1438 1768 2593 0
2 7 13 21 30 32 56 74 94 124 148 193 217 327 417 546 636 801 999 1439 1769 2594 0
3 8 14 22 31 33 57 75 95 125 149 194 218 328 418 547 637 802 1000 1440 1770 2595 0
1 4 9 15 23 34 43 58 76 96 150 159 219 239 419 428 638 803 1001 1441 1771 2596 0
2 5 10 16 24 35 44 59 77 97 151 160 220 240 420 429 639 804 1002 1442 1772 2597 0
3 6 11 17 25 36 45 60 78 98 152 161 221 241 421 430 640 805 1003 1443 1773 2598 0
1 7 12 18 26 37 46 61 79 99 153 162 222 242 422 431 641 806 1004 1444 1774 2599 0
2 8 13 19 27 38 47 62 80 100 154 163 223 243 423 432 642 807 1005 1445 1775 2600 0
3 4 14 20 28 39 48 63 81 101 155 164 224 244 424 433 643 808 1006 1446 1776 2601 0
1 5 9 21 29 40 49 64 82 102 156 165 225 245 425 434 644 809 1007 1447 1777 2602 0
2 6 10 22 30 41 50 65 83 103 157 166 226 246 426 435 645 810 1008 1448 1778 2603 0
3 7 11 15 31 42 51 66 84 104 158 167 227 247 427 436 646 811 1009 1449 1779 2604 0
1 8 12 16 23 32 52 67 85 105 126 168 228 248 329 437 647 812 1010 1450 1780 2605 0
2 4 13 17 24 33 53 68 86 106 127 169 229 249 330 438 648 813 1011 1451 1781 2606 0
3 5 14 18 25 34 54 69 87 107 128 170 230 250 331 439 649 814 1012 1452 1782 2607 0
1 6 9 19 26 35 55 70 88 108 129 171 231 251 332 440 650 815 1013 1453 1783 2608 0
2 7 10 20 27 36 56 71 89 109 130 172 232 252 333 441 651 816 1014 1454 1784 2609 0
3 8 11 21 28 37 57 72 90 110 131 173 233 253 334 442 652 817 1015 1455 1785 2610 0
1 4 12 22 29 38 43 73 91 111 132 174 234 254 335 443 653 818 1016 1456 1786 2611 0
2 5 13 15 30 39 44 74 92 112 133 175 235 255 336 444 654 819 1017 1457 1787 2612 0
3 6 14 16 31 40 45 75 93 113 134 176 236 256 337 445 655 820 1018 1458 1788 2613 0
1 7 9 17 23 41 46 58 94 114 135 177 237 257 338 446 656 821 1019 1459 1789 2614 0
2 8 10 18 24 42 47 59 95 115 136 178 238 258 339 447 657 822 1020 1460 1790 2615 0
3 4 11 19 25 32 48 60 76 116 137 179 195 259 340 448 658 823 1021 1461 1791 2616 0
1 5 12 20 26 33 49 61 77 117 138 180 196 260 341 449 659 824 1022 1462 1792 2617 0
2 6 13 21 27 34 50 62 78 118 139 181 197 261 342 450 660 825 1023 1463 1793 2618 0
3 7 14 22 28 35 51 63 79 119 140 182 198 262 343 451 661 826 1024 1464 1794 2619 0
1 8 9 15 29 36 52 64 80 120 141 183 199 263 344 452 662 827 1025 1465 1795 2620 0
2 4 10 16 30 37 53 65 81 121 142 184 200 264 345 453 663 828 1026 1466 1796 2621 0
3 5 11 17 31 38 54 66 82 122 143 185 201 265 346 454 664 829 1027 1467 1797 2622 0
1 6 12 18 23 39 55 67 83 123 144 186 202 266 347 455 665 830 1028 1468 1798 2623 0
2 7 13 19 24 40 56 68 84 124 145 187 203 267 348 456 666 831 1029 1469 1799 2624 0
3 8 14 20 25 41 57 69 85 125 146 188 204 268 349 457 667 832 1030 1470 1800 2625 0
1 4 9 21 26 42 43 70 86 96 147 189 205 269 350 458 668 833 1031 1471 1801 2626 0
2 5 10 22 27 32 44 71 87 97 148 190 206 270 351 459 669 834 1032 1472 1802 2627 0
3 6 11 15 28 33 45 72 88 98 149 191 207 271 352 460 670 835 1033 1473 1803 2628 0
1 7 12 16 29 34 46 73 89 99 150 192 208 272 353 461 671 836 1034 1474 1804 2629 0
2 8 13 17 30 35 47 74 90 100 151 193 209 273 354 462 672 837 1035 1475 1805 2630 0
3 4 14 18 31 36 48 75 91 101 152 194 210 274 355 463 673 838 1036 1476 1806 2631 0
1 5 9 19 23 37 49 58 92 102 153 159 211 275 356 464 674 839 1037 1477 1807 2632 0
2 6 10 20 24 38 50 59 93 103 154 160 212 276 357 465 675 840 1038 1478 1808 2633 0
3 7 11 21 25 39 51 60 94 104 155 161 213 277 358 466 676 841 1039 1479 1809 2634 0
1 8 12 22 26 40 52 61 95 105 156 162 214 278 359 467 677 842 1040 1480 1810 2635 0
2 4 13 15 27 41 53 62 76 106 157 163 215 279 360 468 678 843 1041 1481 1811 2636 0
3 5 14 16 28 42 54 63 77 107 158 164 216 280 361 469 679 844 1042 1482 1812 2637 0
1 6 9 17 29 32 55 64 78 108 126 165 217 281 362 470 680 845 1043 1483 1813 2638 0
2 7 10 18 30 33 56 65 79 109 127 166 218 282 363 471 681 846 1044 1484 1814 2639 0
3 8 11 19 31 34 57 66 80 110 128 167 219 283 364 472 682 847 1045 1485 1815 2640 0
1 4 12 20 23 35 43 67 81 111 129 168 220 284 365 473 683 848 1046 1486 1816 2641 0
2 5 13 21 24 36 44 68 82 112 130 169 221 285 366 474 684 849 1047 1487 1817 2642 0
3 6 14 22 25 37 45 69 83 113 131 170 222 286 367 475 685 850 1048 1488 1818 2643 0
1 7 9 15 26 38 46 70 84 114 132 171 223 287 368 476 686 851 1049 1489 1819 2644 0
2 8 10 16 27 39 47 71 85 115 133 172 224 288 369 477 687 852 1050 1490 1820 2645 0
3 4 11 17 28 40 48 72 86 116 134 173 225 289 370 478 688 853 1051 1491 1821 2646 0
1 5 12 18 29 41 49 73 87 117 135 174 226 290 371 479 689 854 1052 1492 1822 2647 0
2 6 13 19 30 42 50 74 88 118 136 175 227 291 372 480 690 855 1053 1493 1823 2648 0
3 7 14 20 31 32 51 75 89 119 137 176 228 292 373 481 691 856 1054 1494 1824 2649 0
1 8 9 21 23 33 52 58 90 120 138 177 229 293 374 482 692 857 1055 1495 1825 2650 0
2 4 10 22 24 34 53 59 91 121 139 178 230 294 375 483 693 858 1056 1496 1826 2651 0
3 5 11 15 25 35 54 60 92 122 140 179 231 295 376 484 694 859 1057 1497 1827 2652 0
1 6 12 16 26 36 55 61 93 123 141 180 232 296 377 485 695 860 1058 1498 1828 2653 0
2 7 13 17 27 37 56 62 94 124 142 181 233 297 378 486 696 861 1059 1499 1829 2654 0
3 8 14 18 28 38 57 63 95 125 143 182 234 298 379 487 697 862 1060 1500 1830 2655 0
1 4 9 19 29 39 43 64 76 96 144 183 235 299 380 488 698 863 1061 1501 1831 2656 0
2 5 10 20 30 40 44 65 77 97 145 184 236 300 381 489 699 864 1062 1502 1832 2657 0
3 6 11 21 31 41 45 66 78 98 146 185 237 301 382 490 700 865 1063 1503 1833 2658 0
1 7 12 22 23 42 46 67 79 99 147 186 238 302 383 491 701 866 1064 1504 1834 2659 0
2 8 13 15 24 32 47 68 80 100 148 187 195 303 384 492 702 867 1065 1505 1835 2660 0
3 4 14 16 25 33 48 69 81 101 149 188 196 304 385 493 703 868 1066 1506 1836 2661 0
1 5 9 17 26 34 49 70 82 102 150 189 197 305 386 494 704 869 1067 1507 1837 2662 0
2 6 10 18 27 35 50 71 83 103 151 190 198 306 387 495 705 870 1068 1508 1838 2663 0
3 7 11 19 28 36 51 72 84 104 152 191 199 307 388 496 706 871 1069 1509 1839 2664 0
1 8 12 20 29 37 52 73 85 105 153 192 200 308 389 497 707 872 1070 1510 1840 2665 0
2 4 13 21 30 38 53 74 86 106 154 193 201 309 390 498 708 873 1071 1511 1841 2666 0
3 5 14 22 31 39 54 75 87 107 155 194 202 310 391 499 709 874 1072 1512 1842 2667 0
1 6 9 15 23 40 55 58 88 108 156 159 203 311 392 500 710 875 1073 1513 1843 2668 0
2 7 10 16 24 41 56 59 89 109 157 160 204 312 393 501 711 876 1074 1514 1844 2669 0
3 8 11 17 25 42 57 60 90 110 158 161 205 313 394 502 712 877 1075 1515 1845 2670 0
1 4 12 18 26 32 43 61 91 111 126 162 206 314 395 503 548 878 1076 1516 1846 2671 0
2 5 13 19 27 33 44 62 92 112 127 163 207 315 396 504 549 879 1077 1517 1847 2672 0
3 6 14 20 28 34 45 63 93 113 128 164 208 316 397 505 550 880 1078 1518 1848 2673 0
1 7 9 21 29 35 46 64 94 114 129 165 209 317 398 506 551 881 1079 1519 1849 2674 0
2 8 10 22 30 36 47 65 95 115 130 166 210 318 399 507 552 882 1080 1520 1850 2675 0
3 4 11 15 31 37 48 66 76 116 131 167 211 319 400 508 553 883 1081 1521 1851 2676 0
1 5 12 16 23 38 49 67 77 117 132 168 212 320 401 509 554 884 1082 1522 1852 2677 0
2 6 13 17 24 39 50 68 78 118 133 169 213 321 402 510 555 885 1083 1523 1853 2678 0
3 7 14 18 25 40 51 69 79 119 134 170 214 322 403 511 556 886 1084 1524 1854 2679 0
1 8 9 19 26 41 52 70 80 120 135 171 215 323 404 512 557 887 1085 1525 1855 2680 0
2 4 10 20 27 42 53 71 81 121 136 172 216 324 405 513 558 888 1086 1526 1856 2681 0
3 5 11 21 28 32 54 72 82 122 137 173 217 325 406 514 559 889 1087 1527 1857 2682 0
1 6 12 22 29 33 55 73 83 123 138 174 218 326 407 515 560 890 1088 1528 1858 2683 0
2 7 13 15 30 34 56 74 84 124 139 175 219 327 408 516 561 891 1089 1529 1859 2684 0
3 8 14 16 31 35 57 75 85 125 140 176 220 328 409 517 562 892 1090 1530 1860 2685 0
1 4 9 17 23 36 43 58 86 96 141 177 221 239 410 518 563 893 1091 1531 1861 2686 0
2 5 10 18 24 37 44 59 87 97 142 178 222 240 411 519 564 894 1092 1532 1862 2687 0
3 6 11 19 25 38 45 60 88 98 143 179 223 241 412 520 565 895 1093 1533 1863 2688 0
1 7 12 20 26 39 46 61 89 99 144 180 224 242 413 521 566 896 1094 1534 1864 2689 0
2 8 13 21 27 40 47 62 90 100 145 181 225 243 414 522 567 897 1095 1535 1865 2690 0
3 4 14 22 28 41 48 63 91 101 146 182 226 244 415 523 568 898 1096 1536 1866 2691 0
1 5 9 15 29 42 49 64 92 102 147 183 227 245 416 524 569 899 1097 1537 1867 2692 0
2 6 10 16 30 32 50 65 93 103 148 184 228 246 417 525 570 900 1098 1538 1868 2693 0
3 7 11 17 31 33 51 66 94 104 149 185 229 247 418 526 571 901 1099 1539 1869 2694 0
1 8 12 18 23 34 52 67 95 105 150 186 230 248 419 527 572 902 1100 1540 1870 2695 0
2 4 13 19 24 35 53 68 76 106 151 187 231 249 420 528 573 903 1101 1541 1871 2696 0
3 5 14 20 25 36 54 69 77 107 152 188 232 250 421 529 574 904 1102 1542 1872 2697 0
1 6 9 21 26 37 55 70 78 108 153 189 233 251 422 530 575 905 1103 1543 1873 2698 0
2 7 10 22 27 38 56 71 79 109 154 190 234 252 423 531 576 906 1104 1544 1874 2699 0
3 8 11 15 28 39 57 72 80 110 155 191 235 253 424 532 577 907 1105 1545 1875 2700 0
1 4 12 16 29 40 43 73 81 111 156 192 236 254 425 533 578 908 1106 1546 1876 2701 0
2 5 13 17 30 41 44 74 82 112 157 193 237 255 426 534 579 909 1107 1547 1877 2702 0
3 6 14 18 31 42 45 75 83 113 158 194 238 256 427 535 580 910 1108 1548 1878 2703 0
1 7 9 19 23 32 46 58 84 114 126 159 195 257 329 536 581 713 1109 1549 1879 2704 0
2 8 10 20 24 33 47 59 85 115 127 160 196 258 330 537 582 714 1110 1550 1880 2705 0
3 4 11 21 25 34 48 60 86 116 128 161 197 259 331 538 583 715 1111 1551 1881 2706 0
1 5 12 22 26 35 49 61 87 117 129 162 198 260 332 539 584 716 1112 1552 1882 2707 0
2 6 13 15 27 36 50 62 88 118 130 163 199 261 333 540 585 717 1113 1553 1883 2708 0
3 7 14 16 28 37 51 63 89 119 131 164 200 262 334 541 586 718 1114 1554 1884 2709 0
1 8 9 17 29 38 52 64 90 120 132 165 201 263 335 542 587 719 1115 1555 1885 2710 0
2 4 10 18 30 39 53 65 91 121 133 166 202 264 336 543 588 720 1116 1556 1886 2711 0
3 5 11 19 31 40 54 66 92 122 134 167 203 265 337 544 589 721 1117 1557 1887 2712 0
1 6 12 20 23 41 55 67 93 123 135 168 204 266 338 545 590 722 1118 1558 1888 2713 0
2 7 13 21 24 42 56 68 94 124 136 169 205 267 339 546 591 723 1119 1559 1889 2714 0
3 8 14 22 25 32 57 69 95 125 137 170 206 268 340 547 592 724 1120 1560 1890 2715 0
1 4 9 15 26 33 43 70 76 96 138 171 207 269 341 428 593 725 1121 1561 1891 2716 0
2 5 10 16 27 34 44 71 77 97 139 172 208 270 342 429 594 726 1122 1562 1892 2717 0
3 6 11 17 28 35 45 72 78 98 140 173 209 271 343 430 595 727 1123 1563 1893 2718 0
1 7 12 18 29 36 46 73 79 99 141 174 210 272 344 431 596 728 1124 1564 1894 2719 0
2 8 13 19 30 37 47 74 80 100 142 175 211 273 345 432 597 729 1125 1565 1895 2720 0
3 4 14 20 31 38 48 75 81 101 143 176 212 274 346 433 598 730 1126 1566 1896 2721 0
1 5 9 21 23 39 49 58 82 102 144 177 213 275 347 434 599 731 1127 1567 1897 2722 0
2 6 10 22 24 40 50 59 83 103 145 178 214 276 348 435 600 732 1128 1568 1898 2723 0
3 7 11 15 25 41 51 60 84 104 146 179 215 277 349 436 601 733 1129 1569 1899 2724 0
1 8 12 16 26 42 52 61 85 105 147 180 216 278 350 437 602 734 1130 1570 1900 2725 0
2 4 13 17 27 32 53 62 86 106 148 181 217 279 351 438 603 735 1131 1571 1901 2726 0
3 5 14 18 28 33 54 63 87 107 149 182 218 280 352 439 604 736 1132 1572 1902 2727 0
1 6 9 19 29 34 55 64 88 108 150 183 219 281 353 440 605 737 1133 1573 1903 2728 0
2 7 10 20 30 35 56 65 89 109 151 184 220 282 354 441 606 738 1134 1574 1904 2729 0
3 8 11 21 31 36 57 66 90 110 152 185 221 283 355 442 607 739 1135 1575 1905 2730 0
1 4 12 22 23 37 43 67 91 111 153 186 222 284 356 443 608 740 1136 1576 1906 2731 0
2 5 13 15 24 38 44 68 92 112 154 187 223 285 357 444 609 741 1137 1577 1907 2732 0
3 6 14 16 25 39 45 69 93 113 155 188 224 286 358 445 610 742 1138 1578 1908 2733 0
1 7 9 17 26 40 46 70 94 114 156 189 225 287 359 446 611 743 1139 1579 1909 2734 0
2 8 10 18 27 41 47 71 95 115 157 190 226 288 360 447 612 744 1140 1580 1910 2735 0
3 4 11 19 28 42 48 72 76 116 158 191 227 289 361 448 613 745 1141 1581 1911 2736 0
1 5 12 20 29 32 49 73 77 117 126 192 228 290 362 449 614 746 1142 1582 1912 2737 0
2 6 13 21 30 33 50 74 78 118 127 193 229 291 363 450 615 747 1143 1583 1913 2738 0
3 7 14 22 31 34 51 75 79 119 128 194 230 292 364 451 616 748 1144 1584 1914 2739 0
1 8 9 15 23 35 52 58 80 120 129 159 231 293 365 452 617 749 1145 1585 1915 2740 0
2 4 10 16 24 36 53 59 81 121 130 160 232 294 366 453 618 750 1146 1586 1916 2741 0
3 5 11 17 25 37 54 60 82 122 131 161 233 295 367 454 619 751 1147 1587 1917 2742 0
1 6 12 18 26 38 55 61 83 123 132 162 234 296 368 455 620 752 1148 1588 1918 2743 0
2 7 13 19 27 39 56 62 84 124 133 163 235 297 369 456 621 753 1149 1589 1919 2744 0
3 8 14 20 28 40 57 63 85 125 134 164 236 298 370 457 622 754 1150 1590 1920 2745 0
1 4 9 21 29 41 43 64 86 96 135 165 237 299 371 458 623 755 1151 1591 1921 2746 0
2 5 10 22 30 42 44 65 87 97 136 166 238 300 372 459 624 756 1152 1592 1922 2747 0
3 6 11 15 31 32 45 66 88 98 137 167 195 301 373 460 625 757 1153 1593 1923 2748 0
1 7 12 16 23 33 46 67 89 99 138 168 196 302 374 461 626 758 1154 1594 1924 2749 0
2 8 13 17 24 34 47 68 90 100 139 169 197 303 375 462 627 759 1155 1595 1925 2750 0
3 4 14 18 25 35 48 69 91 101 140 170 198 304 376 463 628 760 1156 1596 1926 2751 0
1 5 9 19 26 36 49 70 92 102 141 171 199 305 377 464 629 761 1157 1597 1927 2752 0
2 6 10 20 27 37 50 71 93 103 142 172 200 306 378 465 630 762 1158 1598 1928 2753 0
3 7 11 21 28 38 51 72 94 104 143 173 201 307 379 466 631 763 1159 1599 1929 2754 0
1 8 12 22 29 39 52 73 95 105 144 174 202 308 380 467 632 764 1160 1600 1930 2755 0
2 4 13 15 30 40 53 74 76 106 145 175 203 309 381 468 633 765 1161 1601 1931 2756 0
3 5 14 16 31 41 54 75 77 107 146 176 204 310 382 469 634 766 1162 1602 1932 2757 0
1 6 9 17 23 42 55 58 78 108 147 177 205 311 383 470 635 767 1163 1603 1933 2758 0
2 7 10 18 24 32 56 59 79 109 148 178 206 312 384 471 636 768 1164 1604 1934 2759 0
3 8 11 19 25 33 57 60 80 110 149 179 207 313 385 472 637 769 1165 1605 1935 2760 0
1 4 12 20 26 34 43 61 81 111 150 180 208 314 386 473 638 770 1166 1606 1936 2761 0
2 5 13 21 27 35 44 62 82 112 151 181 209 315 387 474 639 771 1167 1607 1937 2762 0
3 6 14 22 28 36 45 63 83 113 152 182 210 316 388 475 640 772 1168 1608 1938 2763 0
1 7 9 15 29 37 46 64 84 114 153 183 211 317 389 476 641 773 1169 1609 1939 2764 0
2 8 10 16 30 38 47 65 85 115 154 184 212 318 390 477 642 774 1170 1610 1940 2765 0
3 4 11 17 31 39 48 66 86 116 155 185 213 319 391 478 643 775 1171 1611 1941 2766 0
1 5 12 18 23 40 49 67 87 117 156 186 214 320 392 479 644 776 1172 1612 1942 2767 0
2 6 13 19 24 41 50 68 88 118 157 187 215 321 393 480 645 777 1173 1613 1943 2768 0
3 7 14 20 25 42 51 69 89 119 158 188 216 322 394 481 646 778 1174 1614 1944 2769 0
1 8 9 21 26 32 52 70 90 120 126 189 217 323 395 482 647 779 1175 1615 1945 2770 0
2 4 10 22 27 33 53 71 91 121 127 190 218 324 396 483 648 780 1176 1616 1946 2771 0
3 5 11 15 28 34 54 72 92 122 128 191 219 325 397 484 649 781 1177 1617 1947 2772 0
1 6 12 16 29 35 55 73 93 123 129 192 220 326 398 485 650 782 1178 1618 1948 2773 0
2 7 13 17 30 36 56 74 94 124 130 193 221 327 399 486 651 783 1179 1619 1949 2774 0
3 8 14 18 31 37 57 75 95 125 131 194 222 328 400 487 652 784 1180 1620 1950 2775 0
1 4 9 19 23 38 43 58 76 96 132 159 223 239 401 488 653 785 1181 1621 1951 2776 0
2 5 10 20 24 39 44 59 77 97 133 160 224 240 402 489 654 786 1182 1622 1952 2777 0
3 6 11 21 25 40 45 60 78 98 134 161 225 241 403 490 655 787 1183 1623 1953 2778 0
1 7 12 22 26 41 46 61 79 99 135 162 226 242 404 491 656 788 1184 1624 1954 2779 0
2 8 13 15 27 42 47 62 80 100 136 163 227 243 405 492 657 789 1185 1625 1955 2780 0
3 4 14 16 28 32 48 63 81 101 137 164 228 244 406 493 658 790 1186 1626 1956 2781 0
1 5 9 17 29 33 49 64 82 102 138 165 229 245 407 494 659 791 1187 1627 1957 2782 0
2 6 10 18 30 34 50 65 83 103 139 166 230 246 408 495 660 792 1188 1628 1958 2783 0
3 7 11 19 31 35 51 66 84 104 140 167 231 247 409 496 661 793 1189 1629 1959 2784 0
1 8 12 20 23 36 52 67 85 105 141 168 232 248 410 497 662 794 1190 1630 1960 2785 0
2 4 13 21 24 37 53 68 86 106 142 169 233 249 411 498 663 795 1191 1631 1961 2786 0
3 5 14 22 25 38 54 69 87 107 143 170 234 250 412 499 664 796 1192 1632 1962 2787 0
1 6 9 15 26 39 55 70 88 108 144 171 235 251 413 500 665 797 1193 1633 1963 2788 0
2 7 10 16 27 40 56 71 89 109 145 172 236 252 414 501 666 798 1194 1634 1964 2789 0
3 8 11 17 28 41 57 72 90 110 146 173 237 253 415 502 667 799 1195 1635 1965 2790 0
1 4 12 18 29 42 43 73 91 111 147 174 238 254 416 503 668 800 1196 1636 1966 2791 0
2 5 13 19 30 32 44 74 92 112 148 175 195 255 417 504 669 801 1197 1637 1967 2792 0
3 6 14 20 31 33 45 75 93 113 149 176 196 256 418 505 670 802 1198 1638 1968 2793 0
1 7 9 21 23 34 46 58 94 114 150 177 197 257 419 506 671 803 1199 1639 1969 2794 0
2 8 10 22 24 35 47 59 95 115 151 178 198 258 420 507 672 804 1200 1640 1970 2795 0
3 4 11 15 25 36 48 60 76 116 152 179 199 259 421 508 673 805 1201 1641 1971 2796 0
1 5 12 16 26 37 49 61 77 117 153 180 200 260 422 509 674 806 1202 1642 1972 2797 0
2 6 13 17 27 38 50 62 78 118 154 181 201 261 423 510 675 807 1203 1643 1973 2798 0
3 7 14 18 28 39 51 63 79 119 155 182 202 262 424 511 676 808 1204 1644 1974 2799 0
1 8 9 19 29 40 52 64 80 120 156 183 203 263 425 512 677 809 1205 1645 1975 2800 0
2 4 10 20 30 41 53 65 81 121 157 184 204 264 426 513 678 810 1206 1646 1976 2801 0
3 5 11 21 31 42 54 66 82 122 158 185 205 265 427 514 679 811 1207 1647 1977 2802 0
1 6 12 22 23 32 55 67 83 123 126 186 206 266 329 515 680 812 1208 1648 1978 2803 0
2 7 13 15 24 33 56 68 84 124 127 187 207 267 330 516 681 813 1209 1649 1979 2804 0
3 8 14 16 25 34 57 69 85 125 128 188 208 268 331 517 682 814 1210 1650 1980 2805 0
1 4 9 17 26 35 43 70 86 96 129 189 209 269 332 518 683 815 1211 1651 1981 2806 0
2 5 10 18 27 36 44 71 87 97 130 190 210 270 333 519 684 816 1212 1652 1982 2807 0
3 6 11 19 28 37 45 72 88 98 131 191 211 271 334 520 685 817 1213 1653 1983 2808 0
1 7 12 20 29 38 46 73 89 99 132 192 212 272 335 521 686 818 1214 1654 1984 2809 0
2 8 13 21 30 39 47 74 90 100 133 193 213 273 336 522 687 819 1215 1655 1985 2810 0
3 4 14 22 31 40 48 75 91 101 134 194 214 274 337 523 688 820 1216 1656 1986 2811 0
1 5 9 15 23 41 49 58 92 102 135 159 215 275 338 524 689 821 1217 1657 1987 2812 0
2 6 10 16 24 42 50 59 93 103 136 160 216 276 339 525 690 822 1218 1658 1988 2813 0
3 7 11 17 25 32 51 60 94 104 137 161 217 277 340 526 691 823 1219 1659 1989 2814 0
1 8 12 18 26 33 52 61 95 105 138 162 218 278 341 527 692 824 1220 1660 1990 2815 0
2 4 13 19 27 34 53 62 76 106 139 163 219 279 342 528 693 825 1221 1661 1991 2816 0
3 5 14 20 28 35 54 63 77 107 140 164 220 280 343 529 694 826 1222 1662 1992 2817 0
1 6 9 21 29 36 55 64 78 108 141 165 221 281 344 530 695 827 1223 1663 1993 2818 0
2 7 10 22 30 37 56 65 79 109 142 166 222 282 345 531 696 828 1224 1664 1994 2819 0
3 8 11 15 31 38 57 66 80 110 143 167 223 283 346 532 697 829 1225 1665 1995 2820 0
1 4 12 16 23 39 43 67 81 111 144 168 224 284 347 533 698 830 1226 1666 1996 2821 0
2 5 13 17 24 40 44 68 82 112 145 169 225 285 348 534 699 831 1227 1667 1997 2822 0
3 6 14 18 25 41 45 69 83 113 146 170 226 286 349 535 700 832 1228 1668 1998 2823 0
1 7 9 19 26 42 46 70 84 114 147 171 227 287 350 536 701 833 1229 1669 1999 2824 0
2 8 10 20 27 32 47 71 85 115 148 172 228 288 351 537 702 834 1230 1670 2000 2825 0
3 4 11 21 28 33 48 72 86 116 149 173 229 289 352 538 703 835 1231 1671 2001 2826 0
1 5 12 22 29 34 49 73 87 117 150 174 230 290 353 539 704 836 1232 1672 2002 2827 0
2 6 13 15 30 35 50 74 88 118 151 175 231 291 354 540 705 837 1233 1673 2003 2828 0
3 7 14 16 31 36 51 75 89 119 152 176 232 292 355 541 706 838 1234 1674 2004 2829 0
1 8 9 17 23 37 52 58 90 120 153 177 233 293 356 542 707 839 1235 1675 2005 2830 0
2 4 10 18 24 38 53 59 91 121 154 178 234 294 357 543 708 840 1236 1676 2006 2831 0
3 5 11 19 25 39 54 60 92 122 155 179 235 295 358 544 709 841 1237 1677 2007 2832 0
1 6 12 20 26 40 55 61 93 123 156 180 236 296 359 545 710 842 1238 1678 2008 2833 0
2 7 13 21 27 41 56 62 94 124 157 181 237 297 360 546 711 843 1239 1679 2009 2834 0
3 8 14 22 28 42 57 63 95 125 158 182 238 298 361 547 712 844 1240 1680 2010 2835 0
1 4 9 15 29 32 43 64 76 96 126 183 195 299 362 428 548 845 911 1241 2011 2176 0
2 5 10 16 30 33 44 65 77 97 127 184 196 300 363 429 549 846 912 1242 2012 2177 0
3 6 11 17 31 34 45 66 78 98 128 185 197 301 364 430 550 847 913 1243 2013 2178 0
1 7 12 18 23 35 46 67 79 99 129 186 198 302 365 431 551 848 914 1244 2014 2179 0
2 8 13 19 24 36 47 68 80 100 130 187 199 303 366 432 552 849 915 1245 2015 2180 0
3 4 14 20 25 37 48 69 81 101 131 188 200 304 367 433 553 850 916 1246 2016 2181 0
1 5 9 21 26 38 49 70 82 102 132 189 201 305 368 434 554 851 917 1247 2017 2182 0
2 6 10 22 27 39 50 71 83 103 133 190 202 306 369 435 555 852 918 1248 2018 2183 0
3 7 11 15 28 40 51 72 84 104 134 191 203 307 370 436 556 853 919 1249 2019 2184 0
1 8 12 16 29 41 52 73 85 105 135 192 204 308 371 437 557 854 920 1250 2020 2185 0
2 4 13 17 30 42 53 74 86 106 136 193 205 309 372 438 558 855 921 1251 2021 2186 0
3 5 14 18 31 32 54 75 87 107 137 194 206 310 373 439 559 856 922 1252 2022 2187 0
1 6 9 19 23 33 55 58 88 108 138 159 207 311 374 440 560 857 923 1253 2023 2188 0
2 7 10 20 24 34 56 59 89 109 139 160 208 312 375 441 561 858 924 1254 2024 2189 0
3 8 11 21 25 35 57 60 90 110 140 161 209 313 376 442 562 859 925 1255 2025 2190 0
1 4 12 22 26 36 43 61 91 111 141 162 210 314 377 443 563 860 926 1256 2026 2191 0
2 5 13 15 27 37 44 62 92 112 142 163 211 315 378 444 564 861 927 1257 2027 2192 0
3 6 14 16 28 38 45 63 93 113 143 164 212 316 379 445 565 862 928 1258 2028 2193 0
1 7 9 17 29 39 46 64 94 114 144 165 213 317 380 446 566 863 929 1259 2029 2194 0
2 8 10 18 30 40 47 65 95 115 145 166 214 318 381 447 567 864 930 1260 2030 2195 0
3 4 11 19 31 41 48 66 76 116 146 167 215 319 382 448 568 865 931 1261 2031 2196 0
1 5 12 20 23 42 49 67 77 117 147 168 216 320 383 449 569 866 932 1262 2032 2197 0
2 6 13 21 24 32 50 68 78 118 148 169 217 321 384 450 570 867 933 1263 2033 2198 0
3 7 14 22 25 33 51 69 79 119 149 170 218 322 385 451 571 868 934 1264 2034 2199 0
1 8 9 15 26 34 52 70 80 120 150 171 219 323 386 452 572 869 935 1265 2035 2200 0
2 4 10 16 27 35 53 71 81 121 151 172 220 324 387 453 573 870 936 1266 2036 2201 0
3 5 11 17 28 36 54 72 82 122 152 173 221 325 388 454 574 871 937 1267 2037 2202 0
1 6 12 18 29 37 55 73 83 123 153 174 222 326 389 455 575 872 938 1268 2038 2203 0
2 7 13 19 30 38 56 74 84 124 154 175 223 327 390 456 576 873 939 1269 2039 2204 0
3 8 14 20 31 39 57 75 85 125 155 176 224 328 391 457 577 874 940 1270 2040 2205 0
1 4 9 21 23 40 43 58 86 96 156 177 225 239 392 458 578 875 941 1271 2041 2206 0
2 5 10 22 24 41 44 59 87 97 157 178 226 240 393 459 579 876 942 1272 2042 2207 0
3 6 11 15 25 42 45 60 88 98 158 179 227 241 394 460 580 877 943 1273 2043 2208 0
1 7 12 16 26 32 46 61 89 99 126 180 228 242 395 461 581 878 944 1274 2044 2209 0
2 8 13 17 27 33 47 62 90 100 127 181 229 243 396 462 582 879 945 1275 2045 2210 0
3 4 14 18 28 34 48 63 91 101 128 182 230 244 397 463 583 880 946 1276 2046 2211 0
1 5 9 19 29 35 49 64 92 102 129 183 231 245 398 464 584 881 947 1277 2047 2212 0
2 6 10 20 30 36 50 65 93 103 130 184 232 246 399 465 585 882 948 1278 2048 2213 0
3 7 11 21 31 37 51 66 94 104 131 185 233 247 400 466 586 883 949 1279 2049 2214 0
1 8 12 22 23 38 52 67 95 105 132 186 234 248 401 467 587 884 950 1280 2050 2215 0
2 4 13 15 24 39 53 68 76 106 133 187 235 249 402 468 588 885 951 1281 2051 2216 0
3 5 14 16 25 40 54 69 77 107 134 188 236 250 403 469 589 886 952 1282 2052 2217 0
1 6 9 17 26 41 55 70 78 108 135 189 237 251 404 470 590 887 953 1283 2053 2218 0
2 7 10 18 27 42 56 71 79 109 136 190 238 252 405 471 591 888 954 1284 2054 2219 0
3 8 11 19 28 32 57 72 80 110 137 191 195 253 406 472 592 889 955 1285 2055 2220 0
1 4 12 20 29 33 43 73 81 111 138 192 196 254 407 473 593 890 956 1286 2056 2221 0
2 5 13 21 30 34 44 74 82 112 139 193 197 255 408 474 594 891 957 1287 2057 2222 0
3 6 14 22 31 35 45 75 83 113 140 194 198 256 409 475 595 892 958 1288 2058 2223 0
1 7 9 15 23 36 46 58 84 114 141 159 199 257 410 476 596 893 959 1289 2059 2224 0
2 8 10 16 24 37 47 59 85 115 142 160 200 258 411 477 597 894 960 1290 2060 2225 0
3 4 11 17 25 38 48 60 86 116 143 161 201 259 412 478 598 895 961 1291 2061 2226 0
1 5 12 18 26 39 49 61 87 117 144 162 202 260 413 479 599 896 962 1292 2062 2227 0
2 6 13 19 27 40 50 62 88 118 145 163 203 261 414 480 600 897 963 1293 2063 2228 0
3 7 14 20 28 41 51 63 89 119 146 164 204 262 415 481 601 898 964 1294 2064 2229 0
1 8 9 21 29 42 52 64 90 120 147 165 205 263 416 482 602 899 965 1295 2065 2230 0
2 4 10 22 30 32 53 65 91 121 148 166 206 264 417 483 603 900 966 1296 2066 2231 0
3 5 11 15 31 33 54 66 92 122 149 167 207 265 418 484 604 901 967 1297 2067 2232 0
1 6 12 16 23 34 55 67 93 123 150 168 208 266 419 485 605 902 968 1298 2068 2233 0
2 7 13 17 24 35 56 68 94 124 151 169 209 267 420 486 606 903 969 1299 2069 2234 0
3 8 14 18 25 36 57 69 95 125 152 170 210 268 421 487 607 904 970 1300 2070 2235 0
1 4 9 19 26 37 43 70 76 96 153 171 211 269 422 488 608 905 971 1301 2071 2236 0
2 5 10 20 27 38 44 71 77 97 154 172 212 270 423 489 609 906 972 1302 2072 2237 0
3 6 11 21 28 39 45 72 78 98 155 173 213 271 424 490 610 907 973 1303 2073 2238 0
1 7 12 22 29 40 46 73 79 99 156 174 214 272 425 491 611 908 974 1304 2074 2239 0
2 8 13 15 30 41 47 74 80 100 157 175 215 273 426 492 612 909 975 1305 2075 2240 0
3 4 14 16 31 42 48 75 81 101 158 176 216 274 427 493 613 910 976 1306 2076 2241 0
1 5 9 17 23 32 49 58 82 102 126 177 217 275 329 494 614 713 977 1307 2077 2242 0
2 6 10 18 24 33 50 59 83 103 127 178 218 276 330 495 615 714 978 1308 2078 2243 0
3 7 11 19 25 34 51 60 84 104 128 179 219 277 331 496 616 715 979 1309 2079 2244 0
1 8 12 20 26 35 52 61 85 105 129 180 220 278 332 497 617 716 980 1310 2080 2245 0
2 4 13 21 27 36 53 62 86 106 130 181 221 279 333 498 618 717 981 1311 2081 2246 0
3 5 14 22 28 37 54 63 87 107 131 182 222 280 334 499 619 718 982 1312 2082 2247 0
1 6 9 15 29 38 55 64 88 108 132 183 223 281 335 500 620 719 983 1313 2083 2248 0
2 7 10 16 30 39 56 65 89 109 133 184 224 282 336 501 621 720 984 1314 2084 2249 0
3 8 11 17 31 40 57 66 90 110 134 185 225 283 337 502 622 721 985 1315 2085 2250 0
1 4 12 18 23 41 43 67 91 111 135 186 226 284 338 503 623 722 986 1316 2086 2251 0
2 5 13 19 24 42 44 68 92 112 136 187 227 285 339 504 624 723 987 1317 2087 2252 0
3 6 14 20 25 32 45 69 93 113 137 188 228 286 340 505 625 724 988 1318 2088 2253 0
1 7 9 21 26 33 46 70 94 114 138 189 229 287 341 506 626 725 989 1319 2089 2254 0
2 8 10 22 27 34 47 71 95 115 139 190 230 288 342 507 627 726 990 1320 2090 2255 0
3 4 11 15 28 35 48 72 76 116 140 191 231 289 343 508 628 727 991 1321 2091 2256 0
1 5 12 16 29 36 49 73 77 117 141 192 232 290 344 509 629 728 992 1322 2092 2257 0
2 6 13 17 30 37 50 74 78 118 142 193 233 291 345 510 630 729 993 1323 2093 2258 0
3 7 14 18 31 38 51 75 79 119 143 194 234 292 346 511 631 730 994 1324 2094 2259 0
1 8 9 19 23 39 52 58 80 120 144 159 235 293 347 512 632 731 995 1325 2095 2260 0
2 4 10 20 24 40 53 59 81 121 145 160 236 294 348 513 633 732 996 1326 2096 2261 0
3 5 11 21 25 41 54 60 82 122 146 161 237 295 349 514 634 733 997 1327 2097 2262 0
1 6 12 22 26 42 55 61 83 123 147 162 238 296 350 515 635 734 998 1328 2098 2263 0
2 7 13 15 27 32 56 62 84 124 148 163 195 297 351 516 636 735 999 1329 2099 2264 0
3 8 14 16 28 33 57 63 85 125 149 164 196 298 352 517 637 736 1000 1330 2100 2265 0
1 4 9 17 29 34 43 64 86 96 150 165 197 299 353 518 638 737 1001 1331 2101 2266 0
2 5 10 18 30 35 44 65 87 97 151 166 198 300 354 519 639 738 1002 1332 2102 2267 0
3 6 11 19 31 36 45 66 88 98 152 167 199 301 355 520 640 739 1003 1333 2103 2268 0
1 7 12 20 23 37 46 67 89 99 153 168 200 302 356 521 641 740 1004 1334 2104 2269 0
2 8 13 21 24 38 47 68 90 100 154 169 201 303 357 522 642 741 1005 1335 2105 2270 0
3 4 14 22 25 39 48 69 91 101 155 170 202 304 358 523 643 742 1006 1336 2106 2271 0
1 5 9 15 26 40 49 70 92 102 156 171 203 305 359 524 644 743 1007 1337 2107 2272 0
2 6 10 16 27 41 50 71 93 103 157 172 204 306 360 525 645 744 1008 1338 2108 2273 0
3 7 11 17 28 42 51 72 94 104 158 173 205 307 361 526 646 745 1009 1339 2109 2274 0
1 8 12 18 29 32 52 73 95 105 126 174 206 308 362 527 647 746 1010 1340 2110 2275 0
2 4 13 19 30 33 53 74 76 106 127 175 207 309 363 528 648 747 1011 1341 2111 2276 0
3 5 14 20 31 34 54 75 77 107 128 176 208 310 364 529 649 748 1012 1342 2112 2277 0
1 6 9 21 23 35 55 58 78 108 129 177 209 311 365 530 650 749 1013 1343 2113 2278 0
2 7 10 22 24 36 56 59 79 109 130 178 210 312 366 531 651 750 1014 1344 2114 2279 0
3 8 11 15 25 37 57 60 80 110 131 179 211 313 367 532 652 751 1015 1345 2115 2280 0
1 4 12 16 26 38 43 61 81 111 132 180 212 314 368 533 653 752 1016 1346 2116 2281 0
2 5 13 17 27 39 44 62 82 112 133 181 213 315 369 534 654 753 1017 1347 2117 2282 0
3 6 14 18 28 40 45 63 83 113 134 182 214 316 370 535 655 754 1018 1348 2118 2283 0
1 7 9 19 29 41 46 64 84 114 135 183 215 317 371 536 656 755 1019 1349 2119 2284 0
2 8 10 20 30 42 47 65 85 115 136 184 216 318 372 537 657 756 1020 1350 2120 2285 0
3 4 11 21 31 32 48 66 86 116 137 185 217 319 373 538 658 757 1021 1351 2121 2286 0
1 5 12 22 23 33 49 67 87 117 138 186 218 320 374 539 659 758 1022 1352 2122 2287 0
2 6 13 15 24 34 50 68 88 118 139 187 219 321 375 540 660 759 1023 1353 2123 2288 0
3 7 14 16 25 35 51 69 89 119 140 188 220 322 376 541 661 760 1024 1354 2124 2289 0
1 8 9 17 26 36 52 70 90 120 141 189 221 323 377 542 662 761 1025 1355 2125 2290 0
2 4 10 18 27 37 53 71 91 121 142 190 222 324 378 543 663 762 1026 1356 2126 2291 0
3 5 11 19 28 38 54 72 92 122 143 191 223 325 379 544 664 763 1027 1357 2127 2292 0
1 6 12 20 29 39 55 73 93 123 144 192 224 326 380 545 665 764 1028 1358 2128 2293 0
2 7 13 21 30 40 56 74 94 124 145 193 225 327 381 546 666 765 1029 1359 2129 2294 0
3 8 14 22 31 41 57 75 95 125 146 194 226 328 382 547 667 766 1030 1360 2130 2295 0
1 4 9 15 23 42 43 58 76 96 147 159 227 239 383 428 668 767 1031 1361 2131 2296 0
2 5 10 16 24 32 44 59 77 97 148 160 228 240 384 429 669 768 1032 1362 2132 2297 0
3 6 11 17 25 33 45 60 78 98 149 161 229 241 385 430 670 769 1033 1363 2133 2298 0
1 7 12 18 26 34 46 61 79 99 150 162 230 242 386 431 671 770 1034 1364 2134 2299 0
2 8 13 19 27 35 47 62 80 100 151 163 231 243 387 432 672 771 1035 1365 2135 2300 0
3 4 14 20 28 36 48 63 81 101 152 164 232 244 388 433 673 772 1036 1366 2136 2301 0
1 5 9 21 29 37 49 64 82 102 153 165 233 245 389 434 674 773 1037 1367 2137 2302 0
2 6 10 22 30 38 50 65 83 103 154 166 234 246 390 435 675 774 1038 1368 2138 2303 0
3 7 11 15 31 39 51 66 84 104 155 167 235 247 391 436 676 775 1039 1369 2139 2304 0
1 8 12 16 23 40 52 67 85 105 156 168 236 248 392 437 677 776 1040 1370 2140 2305 0
2 4 13 17 24 41 53 68 86 106 157 169 237 249 393 438 678 777 1041 1371 2141 2306 0
3 5 14 18 25 42 54 69 87 107 158 170 238 250 394 439 679 778 1042 1372 2142 2307 0
1 6 9 19 26 32 55 70 88 108 126 171 195 251 395 440 680 779 1043 1373 2143 2308 0
2 7 10 20 27 33 56 71 89 109 127 172 196 252 396 441 681 780 1044 1374 2144 2309 0
3 8 11 21 28 34 57 72 90 110 128 173 197 253 397 442 682 781 1045 1375 2145 2310 0
1 4 12 22 29 35 43 73 91 111 129 174 198 254 398 443 683 782 1046 1376 2146 2311 0
2 5 13 15 30 36 44 74 92 112 130 175 199 255 399 444 684 783 1047 1377 2147 2312 0
3 6 14 16 31 37 45 75 93 113 131 176 200 256 400 445 685 784 1048 1378 2148 2313 0
1 7 9 17 23 38 46 58 94 114 132 177 201 257 401 446 686 785 1049 1379 2149 2314 0
2 8 10 18 24 39 47 59 95 115 133 178 202 258 402 447 687 786 1050 1380 2150 2315 0
3 4 11 19 25 40 48 60 76 116 134 179 203 259 403 448 688 787 1051 1381 2151 2316 0
1 5 12 20 26 41 49 61 77 117 135 180 204 260 404 449 689 788 1052 1382 2152 2317 0
2 6 13 21 27 42 50 62 78 118 136 181 205 261 405 450 690 789 1053 1383 2153 2318 0
3 7 14 22 28 32 51 63 79 119 137 182 206 262 406 451 691 790 1054 1384 2154 2319 0
1 8 9 15 29 33 52 64 80 120 138 183 207 263 407 452 692 791 1055 1385 2155 2320 0
2 4 10 16 30 34 53 65 81 121 139 184 208 264 408 453 693 792 1056 1386 2156 2321 0
3 5 11 17 31 35 54 66 82 122 140 185 209 265 409 454 694 793 1057 1387 2157 2322 0
1 6 12 18 23 36 55 67 83 123 141 186 210 266 410 455 695 794 1058 1388 2158 2323 0
2 7 13 19 24 37 56 68 84 124 142 187 211 267 411 456 696 795 1059 1389 2159 2324 0
3 8 14 20 25 38 57 69 85 125 143 188 212 268 412 457 697 796 1060 1390 2160 2325 0
1 4 9 21 26 39 43 70 86 96 144 189 213 269 413 458 698 797 1061 1391 2161 2326 0
2 5 10 22 27 40 44 71 87 97 145 190 214 270 414 459 699 798 1062 1392 2162 2327 0
3 6 11 15 28 41 45 72 88 98 146 191 215 271 415 460 700 799 1063 1393 2163 2328 0
1 7 12 16 29 42 46 73 89 99 147 192 216 272 416 461 701 800 1064 1394 2164 2329 0
2 8 13 17 30 32 47 74 90 100 148 193 217 273 417 462 702 801 1065 1395 2165 2330 0
3 4 14 18 31 33 48 75 91 101 149 194 218 274 418 463 703 802 1066 1396 2166 2331 0
1 5 9 19 23 34 49 58 92 102 150 159 219 275 419 464 704 803 1067 1397 2167 2332 0
2 6 10 20 24 35 50 59 93 103 151 160 220 276 420 465 705 804 1068 1398 2168 2333 0
3 7 11 21 25 36 51 60 94 104 152 161 221 277 421 466 706 805 1069 1399 2169 2334 0
1 8 12 22 26 37 52 61 95 105 153 162 222 278 422 467 707 806 1070 1400 2170 2335 0
2 4 13 15 27 38 53 62 76 106 154 163 223 279 423 468 708 807 1071 1401 2171 2336 0
3 5 14 16 28 39 54 63 77 107 155 164 224 280 424 469 709 808 1072 1402 2172 2337 0
1 6 9 17 29 40 55 64 78 108 156 165 225 281 425 470 710 809 1073 1403 2173 2338 0
2 7 10 18 30 41 56 65 79 109 157 166 226 282 426 471 711 810 1074 1404 2174 2339 0
3 8 11 19 31 42 57 66 80 110 158 167 227 283 427 472 712 811 1075 1405 2175 2340 0
1 4 12 20 23 32 43 67 81 111 126 168 228 284 329 473 548 812 1076 1406 1681 2341 0
2 5 13 21 24 33 44 68 82 112 127 169 229 285 330 474 549 813 1077 1407 1682 2342 0
3 6 14 22 25 34 45 69 83 113 128 170 230 286 331 475 550 814 1078 1408 1683 2343 0
1 7 9 15 26 35 46 70 84 114 129 171 231 287 332 476 551 815 1079 1409 1684 2344 0
2 8 10 16 27 36 47 71 85 115 130 172 232 288 333 477 552 816 1080 1410 1685 2345 0
3 4 11 17 28 37 48 72 86 116 131 173 233 289 334 478 553 817 1081 1411 1686 2346 0
1 5 12 18 29 38 49 73 87 117 132 174 234 290 335 479 554 818 1082 1412 1687 2347 0
2 6 13 19 30 39 50 74 88 118 133 175 235 291 336 480 555 819 1083 1413 1688 2348 0
3 7 14 20 31 40 51 75 89 119 134 176 236 292 337 481 556 820 1084 1414 1689 2349 0
1 8 9 21 23 41 52 58 90 120 135 177 237 293 338 482 557 821 1085 1415 1690 2350 0
2 4 10 22 24 42 53 59 91 121 136 178 238 294 339 483 558 822 1086 1416 1691 2351 0
3 5 11 15 25 32 54 60 92 122 137 179 195 295 340 484 559 823 1087 1417 1692 2352 0
1 6 12 16 26 33 55 61 93 123 138 180 196 296 341 485 560 824 1088 1418 1693 2353 0
2 7 13 17 27 34 56 62 94 124 139 181 197 297 342 486 561 825 1089 1419 1694 2354 0
3 8 14 18 28 35 57 63 95 125 140 182 198 298 343 487 562 826 1090 1420 1695 2355 0
1 4 9 19 29 36 43 64 76 96 141 183 199 299 344 488 563 827 1091 1421 1696 2356 0
2 5 10 20 30 37 44 65 77 97 142 184 200 300 345 489 564 828 1092 1422 1697 2357 0
3 6 11 21 31 38 45 66 78 98 143 185 201 301 346 490 565 829 1093 1423 1698 2358 0
1 7 12 22 23 39 46 67 79 99 144 186 202 302 347 491 566 830 1094 1424 1699 2359 0
2 8 13 15 24 40 47 68 80 100 145 187 203 303 348 492 567 831 1095 1425 1700 2360 0
3 4 14 16 25 41 48 69 81 101 146 188 204 304 349 493 568 832 1096 1426 1701 2361 0
1 5 9 17 26 42 49 70 82 102 147 189 205 305 350 494 569 833 1097 1427 1702 2362 0
2 6 10 18 27 32 50 71 83 103 148 190 206 306 351 495 570 834 1098 1428 1703 2363 0
3 7 11 19 28 33 51 72 84 104 149 191 207 307 352 496 571 835 1099 1429 1704 2364 0
1 8 12 20 29 34 52 73 85 105 150 192 208 308 353 497 572 836 1100 1430 1705 2365 0
2 4 13 21 30 35 53 74 86 106 151 193 209 309 354 498 573 837 1101 1431 1706 2366 0
3 5 14 22 31 36 54 75 87 107 152 194 210 310 355 499 574 838 1102 1432 1707 2367 0
1 6 9 15 23 37 55 58 88 108 153 159 211 311 356 500 575 839 1103 1433 1708 2368 0
2 7 10 16 24 38 56 59 89 109 154 160 212 312 357 501 576 840 1104 1434 1709 2369 0
3 8 11 17 25 39 57 60 90 110 155 161 213 313 358 502 577 841 1105 1435 1710 2370 0
1 4 12 18 26 40 43 61 91 111 156 162 214 314 359 503 578 842 1106 1436 1711 2371 0
2 5 13 19 27 41 44 62 92 112 157 163 215 315 360 504 579 843 1107 1437 1712 2372 0
3 6 14 20 28 42 45 63 93 113 158 164 216 316 361 505 580 844 1108 1438 1713 2373 0
1 7 9 21 29 32 46 64 94 114 126 165 217 317 362 506 581 845 1109 1439 1714 2374 0
2 8 10 22 30 33 47 65 95 115 127 166 218 318 363 507 582 846 1110 1440 1715 2375 0
3 4 11 15 31 34 48 66 76 116 128 167 219 319 364 508 583 847 1111 1441 1716 2376 0
1 5 12 16 23 35 49 67 77 117 129 168 220 320 365 509 584 848 1112 1442 1717 2377 0
2 6 13 17 24 36 50 68 78 118 130 169 221 321 366 510 585 849 1113 1443 1718 2378 0
3 7 14 18 25 37 51 69 79 119 131 170 222 322 367 511 586 850 1114 1444 1719 2379 0
1 8 9 19 26 38 52 70 80 120 132 171 223 323 368 512 587 851 1115 1445 1720 2380 0
2 4 10 20 27 39 53 71 81 121 133 172 224 324 369 513 588 852 1116 1446 1721 2381 0
3 5 11 21 28 40 54 72 82 122 134 173 225 325 370 514 589 853 1117 1447 1722 2382 0
1 6 12 22 29 41 55 73 83 123 135 174 226 326 371 515 590 854 1118 1448 1723 2383 0
2 7 13 15 30 42 56 74 84 124 136 175 227 327 372 516 591 855 1119 1449 1724 2384 0
3 8 14 16 31 32 57 75 85 125 137 176 228 328 373 517 592 856 1120 1450 1725 2385 0
1 4 9 17 23 33 43 58 86 96 138 177 229 239 374 518 593 857 1121 1451 1726 2386 0
2 5 10 18 24 34 44 59 87 97 139 178 230 240 375 519 594 858 1122 1452 1727 2387 0
3 6 11 19 25 35 45 60 88 98 140 179 231 241 376 520 595 859 1123 1453 1728 2388 0
1 7 12 20 26 36 46 61 89 99 141 180 232 242 377 521 596 860 1124 1454 1729 2389 0
2 8 13 21 27 37 47 62 90 100 142 181 233 243 378 522 597 861 1125 1455 1730 2390 0
3 4 14 22 28 38 48 63 91 101 143 182 234 244 379 523 598 862 1126 1456 1731 2391 0
1 5 9 15 29 39 49 64 92 102 144 183 235 245 380 524 599 863 1127 1457 1732 2392 0
2 6 10 16 30 40 50 65 93 103 145 184 236 246 381 525 600 864 1128 1458 1733 2393 0
3 7 11 17 31 41 51 66 94 104 146 185 237 247 382 526 601 865 1129 1459 1734 2394 0
1 8 12 18 23 42 52 67 95 105 147 186 238 248 383 527 602 866 1130 1460 1735 2395 0
2 4 13 19 24 32 53 68 76 106 148 187 195 249 384 528 603 867 1131 1461 1736 2396 0
3 5 14 20 25 33 54 69 77 107 149 188 196 250 385 529 604 868 1132 1462 1737 2397 0
1 6 9 21 26 34 55 70 78 108 150 189 197 251 386 530 605 869 1133 1463 1738 2398 0
2 7 10 22 27 35 56 71 79 109 151 190 198 252 387 531 606 870 1134 1464 1739 2399 0
3 8 11 15 28 36 57 72 80 110 152 191 199 253 388 532 607 871 1135 1465 1740 2400 0
1 4 12 16 29 37 43 73 81 111 153 192 200 254 389 533 608 872 1136 1466 1741 2401 0
2 5 13 17 30 38 44 74 82 112 154 193 201 255 390 534 609 873 1137 1467 1742 2402 0
3 6 14 18 31 39 45 75 83 113 155 194 202 256 391 535 610 874 1138 1468 1743 2403 0
1 7 9 19 23 40 46 58 84 114 156 159 203 257 392 536 611 875 1139 1469 1744 2404 0
2 8 10 20 24 41 47 59 85 115 157 160 204 258 393 537 612 876 1140 1470 1745 2405 0
3 4 11 21 25 42 48 60 86 116 158 161 205 259 394 538 613 877 1141 1471 1746 2406 0
1 5 12 22 26 32 49 61 87 117 126 162 206 260 395 539 614 878 1142 1472 1747 2407 0
2 6 13 15 27 33 50 62 88 118 127 163 207 261 396 540 615 879 1143 1473 1748 2408 0
3 7 14 16 28 34 51 63 89 119 128 164 208 262 397 541 616 880 1144 1474 1749 2409 0
1 8 9 17 29 35 52 64 90 120 129 165 209 263 398 542 617 881 1145 1475 1750 2410 0
2 4 10 18 30 36 53 65 91 121 130 166 210 264 399 543 618 882 1146 1476 1751 2411 0
3 5 11 19 31 37 54 66 92 122 131 167 211 265 400 544 619 883 1147 1477 1752 2412 0
1 6 12 20 23 38 55 67 93 123 132 168 212 266 401 545 620 884 1148 1478 1753 2413 0
2 7 13 21 24 39 56 68 94 124 133 169 213 267 402 546 621 885 1149 1479 1754 2414 0
3 8 14 22 25 40 57 69 95 125 134 170 214 268 403 547 622 886 1150 1480 1755 2415 0
1 4 9 15 26 41 43 70 76 96 135 171 215 269 404 428 623 887 1151 1481 1756 2416 0
2 5 10 16 27 42 44 71 77 97 136 172 216 270 405 429 624 888 1152 1482 1757 2417 0
3 6 11 17 28 32 45 72 78 98 137 173 217 271 406 430 625 889 1153 1483 1758 2418 0
1 7 12 18 29 33 46 73 79 99 138 174 218 272 407 431 626 890 1154 1484 1759 2419 0
2 8 13 19 30 34 47 74 80 100 139 175 219 273 408 432 627 891 1155 1485 1760 2420 0
3 4 14 20 31 35 48 75 81 101 140 176 220 274 409 433 628 892 1156 1486 1761 2421 0
1 5 9 21 23 36 49 58 82 102 141 177 221 275 410 434 629 893 1157 1487 1762 2422 0
2 6 10 22 24 37 50 59 83 103 142 178 222 276 411 435 630 894 1158 1488 1763 2423 0
3 7 11 15 25 38 51 60 84 104 143 179 223 277 412 436 631 895 1159 1489 1764 2424 0
1 8 12 16 26 39 52 61 85 105 144 180 224 278 413 437 632 896 1160 1490 1765 2425 0
2 4 13 17 27 40 53 62 86 106 145 181 225 279 414 438 633 897 1161 1491 1766 2426 0
3 5 14 18 28 41 54 63 87 107 146 182 226 280 415 439 634 898 1162 1492 1767 2427 0
1 6 9 19 29 42 55 64 88 108 147 183 227 281 416 440 635 899 1163 1493 1768 2428 0
2 7 10 20 30 32 56 65 89 109 148 184 228 282 417 441 636 900 1164 1494 1769 2429 0
3 8 11 21 31 33 57 66 90 110 149 185 229 283 418 442 637 901 1165 1495 1770 2430 0
1 4 12 22 23 34 43 67 91 111 150 186 230 284 419 443 638 902 1166 1496 1771 2431 0
2 5 13 15 24 35 44 68 92 112 151 187 231 285 420 444 639 903 1167 1497 1772 2432 0
3 6 14 16 25 36 45 69 93 113 152 188 232 286 421 445 640 904 1168 1498 1773 2433 0
1 7 9 17 26 37 46 70 94 114 153 189 233 287 422 446 641 905 1169 1499 1774 2434 0
2 8 10 18 27 38 47 71 95 115 154 190 234 288 423 447 642 906 1170 1500 1775 2435 0
3 4 11 19 28 39 48 72 76 116 155 191 235 289 424 448 643 907 1171 1501 1776 2436 0
1 5 12 20 29 40 49 73 77 117 156 192 236 290 425 449 644 908 1172 1502 1777 2437 0
2 6 13 21 30 41 50 74 78 118 157 193 237 291 426 450 645 909 1173 1503 1778 2438 0
3 7 14 22 31 42 51 75 79 119 158 194 238 292 427 451 646 910 1174 1504 1779 2439 0
1 8 9 15 23 32 52 58 80 120 126 159 195 293 329 452 647 713 1175 1505 1780 2440 0
2 4 10 16 24 33 53 59 81 121 127 160 196 294 330 453 648 714 1176 1506 1781 2441 0
3 5 11 17 25 34 54 60 82 122 128 161 197 295 331 454 649 715 1177 1507 1782 2442 0
1 6 12 18 26 35 55 61 83 123 129 162 198 296 332 455 650 716 1178 1508 1783 2443 0
2 7 13 19 27 36 56 62 84 124 130 163 199 297 333 456 651 717 1179 1509 1784 2444 0
3 8 14 20 28 37 57 63 85 125 131 164 200 298 334 457 652 718 1180 1510 1785 2445 0
1 4 9 21 29 38 43 64 86 96 132 165 201 299 335 458 653 719 1181 1511 1786 2446 0
2 5 10 22 30 39 44 65 87 97 133 166 202 300 336 459 654 720 1182 1512 1787 2447 0
3 6 11 15 31 40 45 66 88 98 134 167 203 301 337 460 655 721 1183 1513 1788 2448 0
1 7 12 16 23 41 46 67 89 99 135 168 204 302 338 461 656 722 1184 1514 1789 2449 0
2 8 13 17 24 42 47 68 90 100 136 169 205 303 339 462 657 723 1185 1515 1790 2450 0
3 4 14 18 25 32 48 69 91 101 137 170 206 304 340 463 658 724 1186 1516 1791 2451 0
1 5 9 19 26 33 49 70 92 102 138 171 207 305 341 464 659 725 1187 1517 1792 2452 0
2 6 10 20 27 34 50 71 93 103 139 172 208 306 342 465 660 726 1188 1518 1793 2453 0
3 7 11 21 28 35 51 72 94 104 140 173 209 307 343 466 661 727 1189 1519 1794 2454 0
1 8 12 22 29 36 52 73 95 105 141 174 210 308 344 467 662 728 1190 1520 1795 2455 0
2 4 13 15 30 37 53 74 76 106 142 175 211 309 345 468 663 729 1191 1521 1796 2456 0
3 5 14 16 31 38 54 75 77 107 143 176 212 310 346 469 664 730 1192 1522 1797 2457 0
1 6 9 17 23 39 55 58 78 108 144 177 213 311 347 470 665 731 1193 1523 1798 2458 0
2 7 10 18 24 40 56 59 79 109 145 178 214 312 348 471 666 732 1194 1524 1799 2459 0
3 8 11 19 25 41 57 60 80 110 146 179 215 313 349 472 667 733 1195 1525 1800 2460 0
1 4 12 20 26 42 43 61 81 111 147 180 216 314 350 473 668 734 1196 1526 1801 2461 0
2 5 13 21 27 32 44 62 82 112 148 181 217 315 351 474 669 735 1197 1527 1802 2462 0
3 6 14 22 28 33 45 63 83 113 149 182 218 316 352 475 670 736 1198 1528 1803 2463 0
1 7 9 15 29 34 46 64 84 114 150 183 219 317 353 476 671 737 1199 1529 1804 2464 0
2 8 10 16 30 35 47 65 85 115 151 184 220 318 354 477 672 738 1200 1530 1805 2465 0
3 4 11 17 31 36 48 66 86 116 152 185 221 319 355 478 673 739 1201 1531 1806 2466 0
1 5 12 18 23 37 49 67 87 117 153 186 222 320 356 479 674 740 1202 1532 1807 2467 0
2 6 13 19 24 38 50 68 88 118 154 187 223 321 357 480 675 741 1203 1533 1808 2468 0
3 7 14 20 25 39 51 69 89 119 155 188 224 322 358 481 676 742 1204 1534 1809 2469 0
1 8 9 21 26 40 52 70 90 120 156 189 225 323 359 482 677 743 1205 1535 1810 2470 0
2 4 10 22 27 41 53 71 91 121 157 190 226 324 360 483 678 744 1206 1536 1811 2471 0
3 5 11 15 28 42 54 72 92 122 158 191 227 325 361 484 679 745 1207 1537 1812 2472 0
1 6 12 16 29 32 55 73 93 123 126 192 228 326 362 485 680 746 1208 1538 1813 2473 0
2 7 13 17 30 33 56 74 94 124 127 193 229 327 363 486 681 747 1209 1539 1814 2474 0
3 8 14 18 31 34 57 75 95 125 128 194 230 328 364 487 682 748 1210 1540 1815 2475 0
1 4 9 19 23 35 43 58 76 96 129 159 231 239 365 488 683 749 1211 1541 1816 2476 0
2 5 10 20 24 36 44 59 77 97 130 160 232 240 366 489 684 750 1212 1542 1817 2477 0
3 6 11 21 25 37 45 60 78 98 131 161 233 241 367 490 685 751 1213 1543 1818 2478 0
1 7 12 22 26 38 46 61 79 99 132 162 234 242 368 491 686 752 1214 1544 1819 2479 0
2 8 13 15 27 39 47 62 80 100 133 163 235 243 369 492 687 753 1215 1545 1820 2480 0
3 4 14 16 28 40 48 63 81 101 134 164 236 244 370 493 688 754 1216 1546 1821 2481 0
1 5 9 17 29 41 49 64 82 102 135 165 237 245 371 494 689 755 1217 1547 1822 2482 0
2 6 10 18 30 42 50 65 83 103 136 166 238 246 372 495 690 756 1218 1548 1823 2483 0
3 7 11 19 31 32 51 66 84 104 137 167 195 247 373 496 691 757 1219 1549 1824 2484 0
1 8 12 20 23 33 52 67 85 105 138 168 196 248 374 497 692 758 1220 1550 1825 2485 0
2 4 13 21 24 34 53 68 86 106 139 169 197 249 375 498 693 759 1221 1551 1826 2486 0
3 5 14 22 25 35 54 69 87 107 140 170 198 250 376 499 694 760 1222 1552 1827 2487 0
1 6 9 15 26 36 55 70 88 108 141 171 199 251 377 500 695 761 1223 1553 1828 2488 0
2 7 10 16 27 37 56 71 89 109 142 172 200 252 378 501 696 762 1224 1554 1829 2489 0
3 8 11 17 28 38 57 72 90 110 143 173 201 253 379 502 697 763 1225 1555 1830 2490 0
1 4 12 18 29 39 43 73 91 111 144 174 202 254 380 503 698 764 1226 1556 1831 2491 0
2 5 13 19 30 40 44 74 92 112 145 175 203 255 381 504 699 765 1227 1557 1832 2492 0
3 6 14 20 31 41 45 75 93 113 146 176 204 256 382 505 700 766 1228 1558 1833 2493 0
1 7 9 21 23 42 46 58 94 114 147 177 205 257 383 506 701 767 1229 1559 1834 2494 0
2 8 10 22 24 32 47 59 95 115 148 178 206 258 384 507 702 768 1230 1560 1835 2495 0
3 4 11 15 25 33 48 60 76 116 149 179 207 259 385 508 703 769 1231 1561 1836 2496 0
1 5 12 16 26 34 49 61 77 117 150 180 208 260 386 509 704 770 1232 1562 1837 2497 0
2 6 13 17 27 35 50 62 78 118 151 181 209 261 387 510 705 771 1233 1563 1838 2498 0
3 7 14 18 28 36 51 63 79 119 152 182 210 262 388 511 706 772 1234 1564 1839 2499 0
1 8 9 19 29 37 52 64 80 120 153 183 211 263 389 512 707 773 1235 1565 1840 2500 0
2 4 10 20 30 38 53 65 81 121 154 184 212 264 390 513 708 774 1236 1566 1841 2501 0
3 5 11 21 31 39 54 66 82 122 155 185 213 265 391 514 709 775 1237 1567 1842 2502 0
1 6 12 22 23 40 55 67 83 123 156 186 214 266 392 515 710 776 1238 1568 1843 2503 0
2 7 13 15 24 41 56 68 84 124 157 187 215 267 393 516 711 777 1239 1569 1844 2504 0
3 8 14 16 25 42 57 69 85 125 158 188 216 268 394 517 712 778 1240 1570 1845 2505 0
1 4 9 17 26 32 43 70 86 96 126 189 217 269 395 518 548 779 911 1571 1846 2506 0
2 5 10 18 27 33 44 71 87 97 127 190 218 270 396 519 549 780 912 1572 1847 2507 0
3 6 11 19 28 34 45 72 88 98 128 191 219 271 397 520 550 781 913 1573 1848 2508 0
1 7 12 20 29 35 46 73 89 99 129 192 220 272 398 521 551 782 914 1574 1849 2509 0
2 8 13 21 30 36 47 74 90 100 130 193 221 273 399 522 552 783 915 1575 1850 2510 0
3 4 14 22 31 37 48 75 91 101 131 194 222 274 400 523 553 784 916 1576 1851 2511 0
1 5 9 15 23 38 49 58 92 102 132 159 223 275 401 524 554 785 917 1577 1852 2512 0
2 6 10 16 24 39 50 59 93 103 133 160 224 276 402 525 555 786 918 1578 1853 2513 0
3 7 11 17 25 40 51 60 94 104 134 161 225 277 403 526 556 787 919 1579 1854 2514 0
1 8 12 18 26 41 52 61 95 105 135 162 226 278 404 527 557 788 920 1580 1855 2515 0
2 4 13 19 27 42 53 62 76 106 136 163 227 279 405 528 558 789 921 1581 1856 2516 0
3 5 14 20 28 32 54 63 77 107 137 164 228 280 406 529 559 790 922 1582 1857 2517 0
1 6 9 21 29 33 55 64 78 108 138 165 229 281 407 530 560 791 923 1583 1858 2518 0
2 7 10 22 30 34 56 65 79 109 139 166 230 282 408 531 561 792 924 1584 1859 2519 0
3 8 11 15 31 35 57 66 80 110 140 167 231 283 409 532 562 793 925 1585 1860 2520 0
1 4 12 16 23 36 43 67 81 111 141 168 232 284 410 533 563 794 926 1586 1861 2521 0
2 5 13 17 24 37 44 68 82 112 142 169 233 285 411 534 564 795 927 1587 1862 2522 0
3 6 14 18 25 38 45 69 83 113 143 170 234 286 412 535 565 796 928 1588 1863 2523 0
1 7 9 19 26 39 46 70 84 114 144 171 235 287 413 536 566 797 929 1589 1864 2524 0
2 8 10 20 27 40 47 71 85 115 145 172 236 288 414 537 567 798 930 1590 1865 2525 0
3 4 11 21 28 41 48 72 86 116 146 173 237 289 415 538 568 799 931 1591 1866 2526 0
1 5 12 22 29 42 49 73 87 117 147 174 238 290 416 539 569 800 932 1592 1867 2527 0
2 6 13 15 30 32 50 74 88 118 148 175 195 291 417 540 570 801 933 1593 1868 2528 0
3 7 14 16 31 33 51 75 89 119 149 176 196 292 418 541 571 802 934 1594 1869 2529 0
1 8 9 17 23 34 52 58 90 120 150 177 197 293 419 542 572 803 935 1595 1870 2530 0
2 4 10 18 24 35 53 59 91 121 151 178 198 294 420 543 573 804 936 1596 1871 2531 0
3 5 11 19 25 36 54 60 92 122 152 179 199 295 421 544 574 805 937 1597 1872 2532 0
1 6 12 20 26 37 55 61 93 123 153 180 200 296 422 545 575 806 938 1598 1873 2533 0
2 7 13 21 27 38 56 62 94 124 154 181 201 297 423 546 576 807 939 1599 1874 2534 0
3 8 14 22 28 39 57 63 95 125 155 182 202 298 424 547 577 808 940 1600 1875 2535 0
1 4 9 15 29 40 43 64 76 96 156 183 203 299 425 428 578 809 941 1601 1876 2536 0
2 5 10 16 30 41 44 65 77 97 157 184 204 300 426 429 579 810 942 1602 1877 2537 0
3 6 11 17 31 42 45 66 78 98 158 185 205 301 427 430 580 811 943 1603 1878 2538 0
1 7 12 18 23 32 46 67 79 99 126 186 206 302 329 431 581 812 944 1604 1879 2539 0
2 8 13 19 24 33 47 68 80 100 127 187 207 303 330 432 582 813 945 1605 1880 2540 0
3 4 14 20 25 34 48 69 81 101 128 188 208 304 331 433 583 814 946 1606 1881 2541 0
1 5 9 21 26 35 49 70 82 102 129 189 209 305 332 434 584 815 947 1607 1882 2542 0
2 6 10 22 27 36 50 71 83 103 130 190 210 306 333 435 585 816 948 1608 1883 2543 0
3 7 11 15 28 37 51 72 84 104 131 191 211 307 334 436 586 817 949 1609 1884 2544 0
1 8 12 16 29 38 52 73 85 105 132 192 212 308 335 437 587 818 950 1610 1885 2545 0
2 4 13 17 30 39 53 74 86 106 133 193 213 309 336 438 588 819 951 1611 1886 2546 0
3 5 14 18 31 40 54 75 87 107 134 194 214 310 337 439 589 820 952 1612 1887 2547 0
1 6 9 19 23 41 55 58 88 108 135 159 215 311 338 440 590 821 953 1613 1888 2548 0
2 7 10 20 24 42 56 59 89 109 136 160 216 312 339 441 591 822 954 1614 1889 2549 0
3 8 11 21 25 32 57 60 90 110 137 161 217 313 340 442 592 823 955 1615 1890 2550 0
1 4 12 22 26 33 43 61 91 111 138 162 218 314 341 443 593 824 956 1616 1891 2551 0
2 5 13 15 27 34 44 62 92 112 139 163 219 315 342 444 594 825 957 1617 1892 2552 0
3 6 14 16 28 35 45 63 93 113 140 164 220 316 343 445 595 826 958 1618 1893 2553 0
1 7 9 17 29 36 46 64 94 114 141 165 221 317 344 446 596 827 959 1619 1894 2554 0
2 8 10 18 30 37 47 65 95 115 142 166 222 318 345 447 597 828 960 1620 1895 2555 0
3 4 11 19 31 38 48 66 76 116 143 167 223 319 346 448 598 829 961 1621 1896 2556 0
1 5 12 20 23 39 49 67 77 117 144 168 224 320 347 449 599 830 962 1622 1897 2557 0
2 6 13 21 24 40 50 68 78 118 145 169 225 321 348 450 600 831 963 1623 1898 2558 0
3 7 14 22 25 41 51 69 79 119 146 170 226 322 349 451 601 832 964 1624 1899 2559 0
1 8 9 15 26 42 52 70 80 120 147 171 227 323 350 452 602 833 965 1625 1900 2560 0
2 4 10 16 27 32 53 71 81 121 148 172 228 324 351 453 603 834 966 1626 1901 2561 0
3 5 11 17 28 33 54 72 82 122 149 173 229 325 352 454 604 835 967 1627 1902 2562 0
1 6 12 18 29 34 55 73 83 123 150 174 230 326 353 455 605 836 968 1628 1903 2563 0
2 7 13 19 30 35 56 74 84 124 151 175 231 327 354 456 606 837 969 1629 1904 2564 0
3 8 14 20 31 36 57 75 85 125 152 176 232 328 355 457 607 838 970 1630 1905 2565 0
1 4 9 21 23 37 43 58 86 96 153 177 233 239 356 458 608 839 971 1631 1906 2566 0
2 5 10 22 24 38 44 59 87 97 154 178 234 240 357 459 609 840 972 1632 1907 2567 0
3 6 11 15 25 39 45 60 88 98 155 179 235 241 358 460 610 841 973 1633 1908 2568 0
1 7 12 16 26 40 46 61 89 99 156 180 236 242 359 461 611 842 974 1634 1909 2569 0
2 8 13 17 27 41 47 62 90 100 157 181 237 243 360 462 612 843 975 1635 1910 2570 0
3 4 14 18 28 42 48 63 91 101 158 182 238 244 361 463 613 844 976 1636 1911 2571 0
1 5 9 19 29 32 49 64 92 102 126 183 195 245 362 464 614 845 977 1637 1912 2572 0
2 6 10 20 30 33 50 65 93 103 127 184 196 246 363 465 615 846 978 1638 1913 2573 0
3 7 11 21 31 34 51 66 94 104 128 185 197 247 364 466 616 847 979 1639 1914 2574 0
1 8 12 22 23 35 52 67 95 105 129 186 198 248 365 467 617 848 980 1640 1915 2575 0
2 4 13 15 24 36 53 68 76 106 130 187 199 249 366 468 618 849 981 1641 1916 2576 0
3 5 14 16 25 37 54 69 77 107 131 188 200 250 367 469 619 850 982 1642 1917 2577 0
1 6 9 17 26 38 55 70 78 108 132 189 201 251 368 470 620 851 983 1643 1918 2578 0
2 7 10 18 27 39 56 71 79 109 133 190 202 252 369 471 621 852 984 1644 1919 2579 0
3 8 11 19 28 40 57 72 80 110 134 191 203 253 370 472 622 853 985 1645 1920 2580 0
1 4 12 20 29 41 43 73 81 111 135 192 204 254 371 473 623 854 986 1646 1921 2581 0
2 5 13 21 30 42 44 74 82 112 136 193 205 255 372 474 624 855 987 1647 1922 2582 0
3 6 14 22 31 32 45 75 83 113 137 194 206 256 373 475 625 856 988 1648 1923 2583 0
1 7 9 15 23 33 46 58 84 114 138 159 207 257 374 476 626 857 989 1649 1924 2584 0
2 8 10 16 24 34 47 59 85 115 139 160 208 258 375 477 627 858 990 1650 1925 2585 0
3 4 11 17 25 35 48 60 86 116 140 161 209 259 376 478 628 859 991 1651 1926 2586 0
1 5 12 18 26 36 49 61 87 117 141 162 210 260 377 479 629 860 992 1652 1927 2587 0
2 6 13 19 27 37 50 62 88 118 142 163 211 261 378 480 630 861 993 1653 1928 2588 0
3 7 14 20 28 38 51 63 89 119 143 164 212 262 379 481 631 862 994 1654 1929 2589 0
1 8 9 21 29 39 52 64 90 120 144 165 213 263 380 482 632 863 995 1655 1930 2590 0
2 4 10 22 30 40 53 65 91 121 145 166 214 264 381 483 633 864 996 1656 1931 2591 0
3 5 11 15 31 41 54 66 92 122 146 167 215 265 382 484 634 865 997 1657 1932 2592 0
1 6 12 16 23 42 55 67 93 123 147 168 216 266 383 485 635 866 998 1658 1933 2593 0
2 7 13 17 24 32 56 68 94 124 148 169 217 267 384 486 636 867 999 1659 1934 2594 0
3 8 14 18 25 33 57 69 95 125 149 170 218 268 385 487 637 868 1000 1660 1935 2595 0
1 4 9 19 26 34 43 70 76 96 150 171 219 269 386 488 638 869 1001 1661 1936 2596 0
2 5 10 20 27 35 44 71 77 97 151 172 220 270 387 489 639 870 1002 1662 1937 2597 0
3 6 11 21 28 36 45 72 78 98 152 173 221 271 388 490 640 871 1003 1663 1938 2598 0
1 7 12 22 29 37 46 73 79 99 153 174 222 272 389 491 641 872 1004 1664 1939 2599 0
2 8 13 15 30 38 47 74 80 100 154 175 223 273 390 492 642 873 1005 1665 1940 2600 0
3 4 14 16 31 39 48 75 81 101 155 176 224 274 391 493 643 874 1006 1666 1941 2601 0
1 5 9 17 23 40 49 58 82 102 156 177 225 275 392 494 644 875 1007 1667 1942 2602 0
2 6 10 18 24 41 50 59 83 103 157 178 226 276 393 495 645 876 1008 1668 1943 2603 0
3 7 11 19 25 42 51 60 84 104 158 179 227 277 394 496 646 877 1009 1669 1944 2604 0
1 8 12 20 26 32 52 61 85 105 126 180 228 278 395 497 647 878 1010 1670 1945 2605 0
2 4 13 21 27 33 53 62 86 106 127 181 229 279 396 498 648 879 1011 1671 1946 2606 0
3 5 14 22 28 34 54 63 87 107 128 182 230 280 397 499 649 880 1012 1672 1947 2607 0
1 6 9 15 29 35 55 64 88 108 129 183 231 281 398 500 650 881 1013 1673 1948 2608 0
2 7 10 16 30 36 56 65 89 109 130 184 232 282 399 501 651 882 1014 1674 1949 2609 0
3 8 11 17 31 37 57 66 90 110 131 185 233 283 400 502 652 883 1015 1675 1950 2610 0
1 4 12 18 23 38 43 67 91 111 132 186 234 284 401 503 653 884 1016 1676 1951 2611 0
2 5 13 19 24 39 44 68 92 112 133 187 235 285 402 504 654 885 1017 1677 1952 2612 0
3 6 14 20 25 40 45 69 93 113 134 188 236 286 403 505 655 886 1018 1678 1953 2613 0
1 7 9 21 26 41 46 70 94 114 135 189 237 287 404 506 656 887 1019 1679 1954 2614 0
2 8 10 22 27 42 47 71 95 115 136 190 238 288 405 507 657 888 1020 1680 1955 2615 0
3 4 11 15 28 32 48 72 76 116 137 191 195 289 406 508 658 889 1021 1241 1956 2616 0
1 5 12 16 29 33 49 73 77 117 138 192 196 290 407 509 659 890 1022 1242 1957 2617 0
2 6 13 17 30 34 50 74 78 118 139 193 197 291 408 510 660 891 1023 1243 1958 2618 0
3 7 14 18 31 35 51 75 79 119 140 194 198 292 409 511 661 892 1024 1244 1959 2619 0
1 8 9 19 23 36 52 58 80 120 141 159 199 293 410 512 662 893 1025 1245 1960 2620 0
2 4 10 20 24 37 53 59 81 121 142 160 200 294 411 513 663 894 1026 1246 1961 2621 0
3 5 11 21 25 38 54 60 82 122 143 161 201 295 412 514 664 895 1027 1247 1962 2622 0
1 6 12 22 26 39 55 61 83 123 144 162 202 296 413 515 665 896 1028 1248 1963 2623 0
2 7 13 15 27 40 56 62 84 124 145 163 203 297 414 516 666 897 1029 1249 1964 2624 0
3 8 14 16 28 41 57 63 85 125 146 164 204 298 415 517 667 898 1030 1250 1965 2625 0
1 4 9 17 29 42 43 64 86 96 147 165 205 299 416 518 668 899 1031 1251 1966 2626 0
2 5 10 18 30 32 44 65 87 97 148 166 206 300 417 519 669 900 1032 1252 1967 2627 0
3 6 11 19 31 33 45 66 88 98 149 167 207 301 418 520 670 901 1033 1253 1968 2628 0
1 7 12 20 23 34 46 67 89 99 150 168 208 302 419 521 671 902 1034 1254 1969 2629 0
2 8 13 21 24 35 47 68 90 100 151 169 209 303 420 522 672 903 1035 1255 1970 2630 0
3 4 14 22 25 36 48 69 91 101 152 170 210 304 421 523 673 904 1036 1256 1971 2631 0
1 5 9 15 26 37 49 70 92 102 153 171 211 305 422 524 674 905 1037 1257 1972 2632 0
2 6 10 16 27 38 50 71 93 103 154 172 212 306 423 525 675 906 1038 1258 1973 2633 0
3 7 11 17 28 39 51 72 94 104 155 173 213 307 424 526 676 907 1039 1259 1974 2634 0
1 8 12 18 29 40 52 73 95 105 156 174 214 308 425 527 677 908 1040 1260 1975 2635 0
2 4 13 19 30 41 53 74 76 106 157 175 215 309 426 528 678 909 1041 1261 1976 2636 0
3 5 14 20 31 42 54 75 77 107 158 176 216 310 427 529 679 910 1042 1262 1977 2637 0
1 6 9 21 23 32 55 58 78 108 126 177 217 311 329 530 680 713 1043 1263 1978 2638 0
2 7 10 22 24 33 56 59 79 109 127 178 218 312 330 531 681 714 1044 1264 1979 2639 0
3 8 11 15 25 34 57 60 80 110 128 179 219 313 331 532 682 715 1045 1265 1980 2640 0
1 4 12 16 26 35 43 61 81 111 129 180 220 314 332 533 683 716 1046 1266 1981 2641 0
2 5 13 17 27 36 44 62 82 112 130 181 221 315 333 534 684 717 1047 1267 1982 2642 0
3 6 14 18 28 37 45 63 83 113 131 182 222 316 334 535 685 718 1048 1268 1983 2643 0
1 7 9 19 29 38 46 64 84 114 132 183 223 317 335 536 686 719 1049 1269 1984 2644 0
2 8 10 20 30 39 47 65 85 115 133 184 224 318 336 537 687 720 1050 1270 1985 2645 0
3 4 11 21 31 40 48 66 86 116 134 185 225 319 337 538 688 721 1051 1271 1986 2646 0
1 5 12 22 23 41 49 67 87 117 135 186 226 320 338 539 689 722 1052 1272 1987 2647 0
2 6 13 15 24 42 50 68 88 118 136 187 227 321 339 540 690 723 1053 1273 1988 2648 0
3 7 14 16 25 32 51 69 89 119 137 188 228 322 340 541 691 724 1054 1274 1989 2649 0
1 8 9 17 26 33 52 70 90 120 138 189 229 323 341 542 692 725 1055 1275 1990 2650 0
2 4 10 18 27 34 53 71 91 121 139 190 230 324 342 543 693 726 1056 1276 1991 2651 0
3 5 11 19 28 35 54 72 92 122 140 191 231 325 343 544 694 727 1057 1277 1992 2652 0
1 6 12 20 29 36 55 73 93 123 141 192 232 326 344 545 695 728 1058 1278 1993 2653 0
2 7 13 21 30 37 56 74 94 124 142 193 233 327 345 546 696 729 1059 1279 1994 2654 0
3 8 14 22 31 38 57 75 95 125 143 194 234 328 346 547 697 730 1060 1280 1995 2655 0
1 4 9 15 23 39 43 58 76 96 144 159 235 239 347 428 698 731 1061 1281 1996 2656 0
2 5 10 16 24 40 44 59 77 97 145 160 236 240 348 429 699 732 1062 1282 1997 2657 0
3 6 11 17 25 41 45 60 78 98 146 161 237 241 349 430 700 733 1063 1283 1998 2658 0
1 7 12 18 26 42 46 61 79 99 147 162 238 242 350 431 701 734 1064 1284 1999 2659 0
2 8 13 19 27 32 47 62 80 100 148 163 195 243 351 432 702 735 1065 1285 2000 2660 0
3 4 14 20 28 33 48 63 81 101 149 164 196 244 352 433 703 736 1066 1286 2001 2661 0
1 5 9 21 29 34 49 64 82 102 150 165 197 245 353 434 704 737 1067 1287 2002 2662 0
2 6 10 22 30 35 50 65 83 103 151 166 198 246 354 435 705 738 1068 1288 2003 2663 0
3 7 11 15 31 36 51 66 84 104 152 167 199 247 355 436 706 739 1069 1289 2004 2664 0
1 8 12 16 23 37 52 67 85 105 153 168 200 248 356 437 707 740 1070 1290 2005 2665 0
2 4 13 17 24 38 53 68 86 106 154 169 201 249 357 438 708 741 1071 1291 2006 2666 0
3 5 14 18 25 39 54 69 87 107 155 170 202 250 358 439 709 742 1072 1292 2007 2667 0
1 6 9 19 26 40 55 70 88 108 156 171 203 251 359 440 710 743 1073 1293 2008 2668 0
2 7 10 20 27 41 56 71 89 109 157 172 204 252 360 441 711 744 1074 1294 2009 2669 0
3 8 11 21 28 42 57 72 90 110 158 173 205 253 361 442 712 745 1075 1295 2010 2670 0
1 4 12 22 29 32 43 73 91 111 126 174 206 254 362 443 548 746 1076 1296 2011 2671 0
2 5 13 15 30 33 44 74 92 112 127 175 207 255 363 444 549 747 1077 1297 2012 2672 0
3 6 14 16 31 34 45 75 93 113 128 176 208 256 364 445 550 748 1078 1298 2013 2673 0
1 7 9 17 23 35 46 58 94 114 129 177 209 257 365 446 551 749 1079 1299 2014 2674 0
2 8 10 18 24 36 47 59 95 115 130 178 210 258 366 447 552 750 1080 1300 2015 2675 0
3 4 11 19 25 37 48 60 76 116 131 179 211 259 367 448 553 751 1081 1301 2016 2676 0
1 5 12 20 26 38 49 61 77 117 132 180 212 260 368 449 554 752 1082 1302 2017 2677 0
2 6 13 21 27 39 50 62 78 118 133 181 213 261 369 450 555 753 1083 1303 2018 2678 0
3 7 14 22 28 40 51 63 79 119 134 182 214 262 370 451 556 754 1084 1304 2019 2679 0
1 8 9 15 29 41 52 64 80 120 135 183 215 263 371 452 557 755 1085 1305 2020 2680 0
2 4 10 16 30 42 53 65 81 121 136 184 216 264 372 453 558 756 1086 1306 2021 2681 0
3 5 11 17 31 32 54 66 82 122 137 185 217 265 373 454 559 757 1087 1307 2022 2682 0
1 6 12 18 23 33 55 67 83 123 138 186 218 266 374 455 560 758 1088 1308 2023 2683 0
2 7 13 19 24 34 56 68 84 124 139 187 219 267 375 456 561 759 1089 1309 2024 2684 0
3 8 14 20 25 35 57 69 85 125 140 188 220 268 376 457 562 760 1090 1310 2025 2685 0
1 4 9 21 26 36 43 70 86 96 141 189 221 269 377 458 563 761 1091 1311 2026 2686 0
2 5 10 22 27 37 44 71 87 97 142 190 222 270 378 459 564 762 1092 1312 2027 2687 0
3 6 11 15 28 38 45 72 88 98 143 191 223 271 379 460 565 763 1093 1313 2028 2688 0
1 7 12 16 29 39 46 73 89 99 144 192 224 272 380 461 566 764 1094 1314 2029 2689 0
2 8 13 17 30 40 47 74 90 100 145 193 225 273 381 462 567 765 1095 1315 2030 2690 0
3 4 14 18 31 41 48 75 91 101 146 194 226 274 382 463 568 766 1096 1316 2031 2691 0
1 5 9 19 23 42 49 58 92 102 147 159 227 275 383 464 569 767 1097 1317 2032 2692 0
2 6 10 20 24 32 50 59 93 103 148 160 228 276 384 465 570 768 1098 1318 2033 2693 0
3 7 11 21 25 33 51 60 94 104 149 161 229 277 385 466 571 769 1099 1319 2034 2694 0
1 8 12 22 26 34 52 61 95 105 150 162 230 278 386 467 572 770 1100 1320 2035 2695 0
2 4 13 15 27 35 53 62 76 106 151 163 231 279 387 468 573 771 1101 1321 2036 2696 0
3 5 14 16 28 36 54 63 77 107 152 164 232 280 388 469 574 772 1102 1322 2037 2697 0
1 6 9 17 29 37 55 64 78 108 153 165 233 281 389 470 575 773 1103 1323 2038 2698 0
2 7 10 18 30 38 56 65 79 109 154 166 234 282 390 471 576 774 1104 1324 2039 2699 0
3 8 11 19 31 39 57 66 80 110 155 167 235 283 391 472 577 775 1105 1325 2040 2700 0
1 4 12 20 23 40 43 67 81 111 156 168 236 284 392 473 578 776 1106 1326 2041 2701 0
2 5 13 21 24 41 44 68 82 112 157 169 237 285 393 474 579 777 1107 1327 2042 2702 0
3 6 14 22 25 42 45 69 83 113 158 170 238 286 394 475 580 778 1108 1328 2043 2703 0
1 7 9 15 26 32 46 70 84 114 126 171 195 287 395 476 581 779 1109 1329 2044 2704 0
2 8 10 16 27 33 47 71 85 115 127 172 196 288 396 477 582 780 1110 1330 2045 2705 0
3 4 11 17 28 34 48 72 86 116 128 173 197 289 397 478 583 781 1111 1331 2046 2706 0
1 5 12 18 29 35 49 73 87 117 129 174 198 290 398 479 584 782 1112 1332 2047 2707 0
2 6 13 19 30 36 50 74 88 118 130 175 199 291 399 480 585 783 1113 1333 2048 2708 0
3 7 14 20 31 37 51 75 89 119 131 176 200 292 400 481 586 784 1114 1334 2049 2709 0
1 8 9 21 23 38 52 58 90 120 132 177 201 293 401 482 587 785 1115 1335 2050 2710 0
2 4 10 22 24 39 53 59 91 121 133 178 202 294 402 483 588 786 1116 1336 2051 2711 0
3 5 11 15 25 40 54 60 92 122 134 179 203 295 403 484 589 787 1117 1337 2052 2712 0
1 6 12 16 26 41 55 61 93 123 135 180 204 296 404 485 590 788 1118 1338 2053 2713 0
2 7 13 17 27 42 56 62 94 124 136 181 205 297 405 486 591 789 1119 1339 2054 2714 0
3 8 14 18 28 32 57 63 95 125 137 182 206 298 406 487 592 790 1120 1340 2055 2715 0
1 4 9 19 29 33 43 64 76 96 138 183 207 299 407 488 593 791 1121 1341 2056 2716 0
2 5 10 20 30 34 44 65 77 97 139 184 208 300 408 489 594 792 1122 1342 2057 2717 0
3 6 11 21 31 35 45 66 78 98 140 185 209 301 409 490 595 793 1123 1343 2058 2718 0
1 7 12 22 23 36 46 67 79 99 141 186 210 302 410 491 596 794 1124 1344 2059 2719 0
2 8 13 15 24 37 47 68 80 100 142 187 211 303 411 492 597 795 1125 1345 2060 2720 0
3 4 14 16 25 38 48 69 81 101 143 188 212 304 412 493 598 796 1126 1346 2061 2721 0
1 5 9 17 26 39 49 70 82 102 144 189 213 305 413 494 599 797 1127 1347 2062 2722 0
2 6 10 18 27 40 50 71 83 103 145 190 214 306 414 495 600 798 1128 1348 2063 2723 0
3 7 11 19 28 41 51 72 84 104 146 191 215 307 415 496 601 799 1129 1349 2064 2724 0
1 8 12 20 29 42 52 73 85 105 147 192 216 308 416 497 602 800 1130 1350 2065 2725 0
2 4 13 21 30 32 53 74 86 106 148 193 217 309 417 498 603 801 1131 1351 2066 2726 0
3 5 14 22 31 33 54 75 87 107 149 194 218 310 418 499 604 802 1132 1352 2067 2727 0
1 6 9 15 23 34 55 58 88 108 150 159 219 311 419 500 605 803 1133 1353 2068 2728 0
2 7 10 16 24 35 56 59 89 109 151 160 220 312 420 501 606 804 1134 1354 2069 2729 0
3 8 11 17 25 36 57 60 90 110 152 161 221 313 421 502 607 805 1135 1355 2070 2730 0
1 4 12 18 26 37 43 61 91 111 153 162 222 314 422 503 608 806 1136 1356 2071 2731 0
2 5 13 19 27 38 44 62 92 112 154 163 223 315 423 504 609 807 1137 1357 2072 2732 0
3 6 14 20 28 39 45 63 93 113 155 164 224 316 424 505 610 808 1138 1358 2073 2733 0
1 7 9 21 29 40 46 64 94 114 156 165 225 317 425 506 611 809 1139 1359 2074 2734 0
2 8 10 22 30 41 47 65 95 115 157 166 226 318 426 507 612 810 1140 1360 2075 2735 0
3 4 11 15 31 42 48 66 76 116 158 167 227 319 427 508 613 811 1141 1361 2076 2736 0
1 5 12 16 23 32 49 67 77 117 126 168 228 320 329 509 614 812 1142 1362 2077 2737 0
2 6 13 17 24 33 50 68 78 118 127 169 229 321 330 510 615 813 1143 1363 2078 2738 0
3 7 14 18 25 34 51 69 79 119 128 170 230 322 331 511 616 814 1144 1364 2079 2739 0
1 8 9 19 26 35 52 70 80 120 129 171 231 323 332 512 617 815 1145 1365 2080 2740 0
2 4 10 20 27 36 53 71 81 121 130 172 232 324 333 513 618 816 1146 1366 2081 2741 0
3 5 11 21 28 37 54 72 82 122 131 173 233 325 334 514 619 817 1147 1367 2082 2742 0
1 6 12 22 29 38 55 73 83 123 132 174 234 326 335 515 620 818 1148 1368 2083 2743 0
2 7 13 15 30 39 56 74 84 124 133 175 235 327 336 516 621 819 1149 1369 2084 2744 0
3 8 14 16 31 40 57 75 85 125 134 176 236 328 337 517 622 820 1150 1370 2085 2745 0
1 4 9 17 23 41 43 58 86 96 135 177 237 239 338 518 623 821 1151 1371 2086 2746 0
2 5 10 18 24 42 44 59 87 97 136 178 238 240 339 519 624 822 1152 1372 2087 2747 0
3 6 11 19 25 32 45 60 88 98 137 179 195 241 340 520 625 823 1153 1373 2088 2748 0
1 7 12 20 26 33 46 61 89 99 138 180 196 242 341 521 626 824 1154 1374 2089 2749 0
2 8 13 21 27 34 47 62 90 100 139 181 197 243 342 522 627 825 1155 1375 2090 2750 0
3 4 14 22 28 35 48 63 91 101 140 182 198 244 343 523 628 826 1156 1376 2091 2751 0
1 5 9 15 29 36 49 64 92 102 141 183 199 245 344 524 629 827 1157 1377 2092 2752 0
2 6 10 16 30 37 50 65 93 103 142 184 200 246 345 525 630 828 1158 1378 2093 2753 0
3 7 11 17 31 38 51 66 94 104 143 185 201 247 346 526 631 829 1159 1379 2094 2754 0
1 8 12 18 23 39 52 67 95 105 144 186 202 248 347 527 632 830 1160 1380 2095 2755 0
2 4 13 19 24 40 53 68 76 106 145 187 203 249 348 528 633 831 1161 1381 2096 2756 0
3 5 14 20 25 41 54 69 77 107 146 188 204 250 349 529 634 832 1162 1382 2097 2757 0
1 6 9 21 26 42 55 70 78 108 147 189 205 251 350 530 635 833 1163 1383 2098 2758 0
2 7 10 22 27 32 56 71 79 109 148 190 206 252 351 531 636 834 1164 1384 2099 2759 0
3 8 11 15 28 33 57 72 80 110 149 191 207 253 352 532 637 835 1165 1385 2100 2760 0
1 4 12 16 29 34 43 73 81 111 150 192 208 254 353 533 638 836 1166 1386 2101 2761 0
2 5 13 17 30 35 44 74 82 112 151 193 209 255 354 534 639 837 1167 1387 2102 2762 0
3 6 14 18 31 36 45 75 83 113 152 194 210 256 355 535 640 838 1168 1388 2103 2763 0
1 7 9 19 23 37 46 58 84 114 153 159 211 257 356 536 641 839 1169 1389 2104 2764 0
2 8 10 20 24 38 47 59 85 115 154 160 212 258 357 537 642 840 1170 1390 2105 2765 0
3 4 11 21 25 39 48 60 86 116 155 161 213 259 358 538 643 841 1171 1391 2106 2766 0
1 5 12 22 26 40 49 61 87 117 156 162 214 260 359 539 644 842 1172 1392 2107 2767 0
2 6 13 15 27 41 50 62 88 118 157 163 215 261 360 540 645 843 1173 1393 2108 2768 0
3 7 14 16 28 42 51 63 89 119 158 164 216 262 361 541 646 844 1174 1394 2109 2769 0
1 8 9 17 29 32 52 64 90 120 126 165 217 263 362 542 647 845 1175 1395 2110 2770 0
2 4 10 18 30 33 53 65 91 121 127 166 218 264 363 543 648 846 1176 1396 2111 2771 0
3 5 11 19 31 34 54 66 92 122 128 167 219 265 364 544 649 847 1177 1397 2112 2772 0
1 6 12 20 23 35 55 67 93 123 129 168 220 266 365 545 650 848 1178 1398 2113 2773 0
2 7 13 21 24 36 56 68 94 124 130 169 221 267 366 546 651 849 1179 1399 2114 2774 0
3 8 14 22 25 37 57 69 95 125 131 170 222 268 367 547 652 850 1180 1400 2115 2775 0
1 4 9 15 26 38 43 70 76 96 132 171 223 269 368 428 653 851 1181 1401 2116 2776 0
2 5 10 16 27 39 44 71 77 97 133 172 224 270 369 429 654 852 1182 1402 2117 2777 0
3 6 11 17 28 40 45 72 78 98 134 173 225 271 370 430 655 853 1183 1403 2118 2778 0
1 7 12 18 29 41 46 73 79 99 135 174 226 272 371 431 656 854 1184 1404 2119 2779 0
2 8 13 19 30 42 47 74 80 100 136 175 227 273 372 432 657 855 1185 1405 2120 2780 0
3 4 14 20 31 32 48 75 81 101 137 176 228 274 373 433 658 856 1186 1406 2121 2781 0
1 5 9 21 23 33 49 58 82 102 138 177 229 275 374 434 659 857 1187 1407 2122 2782 0
2 6 10 22 24 34 50 59 83 103 139 178 230 276 375 435 660 858 1188 1408 2123 2783 0
3 7 11 15 25 35 51 60 84 104 140 179 231 277 376 436 661 859 1189 1409 2124 2784 0
1 8 12 16 26 36 52 61 85 105 141 180 232 278 377 437 662 860 1190 1410 2125 2785 0
2 4 13 17 27 37 53 62 86 106 142 181 233 279 378 438 663 861 1191 1411 2126 2786 0
3 5 14 18 28 38 54 63 87 107 143 182 234 280 379 439 664 862 1192 1412 2127 2787 0
1 6 9 19 29 39 55 64 88 108 144 183 235 281 380 440 665 863 1193 1413 2128 2788 0
2 7 10 20 30 40 56 65 89 109 145 184 236 282 381 441 666 864 1194 1414 2129 2789 0
3 8 11 21 31 41 57 66 90 110 146 185 237 283 382 442 667 865 1195 1415 2130 2790 0
1 4 12 22 23 42 43 67 91 111 147 186 238 284 383 443 668 866 1196 1416 2131 2791 0
2 5 13 15 24 32 44 68 92 112 148 187 195 285 384 444 669 867 1197 1417 2132 2792 0
3 6 14 16 25 33 45 69 93 113 149 188 196 286 385 445 670 868 1198 1418 2133 2793 0
1 7 9 17 26 34 46 70 94 114 150 189 197 287 386 446 671 869 1199 1419 2134 2794 0
2 8 10 18 27 35 47 71 95 115 151 190 198 288 387 447 672 870 1200 1420 2135 2795 0
3 4 11 19 28 36 48 72 76 116 152 191 199 289 388 448 673 871 1201 1421 2136 2796 0
1 5 12 20 29 37 49 73 77 117 153 192 200 290 389 449 674 872 1202 1422 2137 2797 0
2 6 13 21 30 38 50 74 78 118 154 193 201 291 390 450 675 873 1203 1423 2138 2798 0
3 7 14 22 31 39 51 75 79 119 155 194 202 292 391 451 676 874 1204 1424 2139 2799 0
1 8 9 15 23 40 52 58 80 120 156 159 203 293 392 452 677 875 1205 1425 2140 2800 0
2 4 10 16 24 41 53 59 81 121 157 160 204 294 393 453 678 876 1206 1426 2141 2801 0
3 5 11 17 25 42 54 60 82 122 158 161 205 295 394 454 679 877 1207 1427 2142 2802 0
1 6 12 18 26 32 55 61 83 123 126 162 206 296 395 455 680 878 1208 1428 2143 2803 0
2 7 13 19 27 33 56 62 84 124 127 163 207 297 396 456 681 879 1209 1429 2144 2804 0
3 8 14 20 28 34 57 63 85 125 128 164 208 298 397 457 682 880 1210 1430 2145 2805 0
1 4 9 21 29 35 43 64 86 96 129 165 209 299 398 458 683 881 1211 1431 2146 2806 0
2 5 10 22 30 36 44 65 87 97 130 166 210 300 399 459 684 882 1212 1432 2147 2807 0
3 6 11 15 31 37 45 66 88 98 131 167 211 301 400 460 685 883 1213 1433 2148 2808 0
1 7 12 16 23 38 46 67 89 99 132 168 212 302 401 461 686 884 1214 1434 2149 2809 0
2 8 13 17 24 39 47 68 90 100 133 169 213 303 402 462 687 885 1215 1435 2150 2810 0
3 4 14 18 25 40 48 69 91 101 134 170 214 304 403 463 688 886 1216 1436 2151 2811 0
1 5 9 19 26 41 49 70 92 102 135 171 215 305 404 464 689 887 1217 1437 2152 2812 0
2 6 10 20 27 42 50 71 93 103 136 172 216 306 405 465 690 888 1218 1438 2153 2813 0
3 7 11 21 28 32 51 72 94 104 137 173 217 307 406 466 691 889 1219 1439 2154 2814 0
1 8 12 22 29 33 52 73 95 105 138 174 218 308 407 467 692 890 1220 1440 2155 2815 0
2 4 13 15 30 34 53 74 76 106 139 175 219 309 408 468 693 891 1221 1441 2156 2816 0
3 5 14 16 31 35 54 75 77 107 140 176 220 310 409 469 694 892 1222 1442 2157 2817 0
1 6 9 17 23 36 55 58 78 108 141 177 221 311 410 470 695 893 1223 1443 2158 2818 0
2 7 10 18 24 37 56 59 79 109 142 178 222 312 411 471 696 894 1224 1444 2159 2819 0
3 8 11 19 25 38 57 60 80 110 143 179 223 313 412 472 697 895 1225 1445 2160 2820 0
1 4 12 20 26 39 43 61 81 111 144 180 224 314 413 473 698 896 1226 1446 2161 2821 0
2 5 13 21 27 40 44 62 82 112 145 181 225 315 414 474 699 897 1227 1447 2162 2822 0
3 6 14 22 28 41 45 63 83 113 146 182 226 316 415 475 700 898 1228 1448 2163 2823 0
1 7 9 15 29 42 46 64 84 114 147 183 227 317 416 476 701 899 1229 1449 2164 2824 0
2 8 10 16 30 32 47 65 85 115 148 184 228 318 417 477 702 900 1230 1450 2165 2825 0
3 4 11 17 31 33 48 66 86 116 149 185 229 319 418 478 703 901 1231 1451 2166 2826 0
1 5 12 18 23 34 49 67 87 117 150 186 230 320 419 479 704 902 1232 1452 2167 2827 0
2 6 13 19 24 35 50 68 88 118 151 187 231 321 420 480 705 903 1233 1453 2168 2828 0
3 7 14 20 25 36 51 69 89 119 152 188 232 322 421 481 706 904 1234 1454 2169 2829 0
1 8 9 21 26 37 52 70 90 120 153 189 233 323 422 482 707 905 1235 1455 2170 2830 0
2 4 10 22 27 38 53 71 91 121 154 190 234 324 423 483 708 906 1236 1456 2171 2831 0
3 5 11 15 28 39 54 72 92 122 155 191 235 325 424 484 709 907 1237 1457 2172 2832 0
1 6 12 16 29 40 55 73 93 123 156 192 236 326 425 485 710 908 1238 1458 2173 2833 0
2 7 13 17 30 41 56 74 94 124 157 193 237 327 426 486 711 909 1239 1459 2174 2834 0
3 8 14 18 31 42 57 75 95 125 158 194 238 328 427 487 712 910 1240 1460 2175 2835 0
1 4 9 19 23 32 43 58 76 96 126 159 195 239 329 488 548 713 911 1461 1681 2176 0
2 5 10 20 24 33 44 59 77 97 127 160 196 240 330 489 549 714 912 1462 1682 2177 0
3 6 11 21 25 34 45 60 78 98 128 161 197 241 331 490 550 715 913 1463 1683 2178 0
1 7 12 22 26 35 46 61 79 99 129 162 198 242 332 491 551 716 914 1464 1684 2179 0
2 8 13 15 27 36 47 62 80 100 130 163 199 243 333 492 552 717 915 1465 1685 2180 0
3 4 14 16 28 37 48 63 81 101 131 164 200 244 334 493 553 718 916 1466 1686 2181 0
1 5 9 17 29 38 49 64 82 102 132 165 201 245 335 494 554 719 917 1467 1687 2182 0
2 6 10 18 30 39 50 65 83 103 133 166 202 246 336 495 555 720 918 1468 1688 2183 0
3 7 11 19 31 40 51 66 84 104 134 167 203 247 337 496 556 721 919 1469 1689 2184 0
1 8 12 20 23 41 52 67 85 105 135 168 204 248 338 497 557 722 920 1470 1690 2185 0
2 4 13 21 24 42 53 68 86 106 136 169 205 249 339 498 558 723 921 1471 1691 2186 0
3 5 14 22 25 32 54 69 87 107 137 170 206 250 340 499 559 724 922 1472 1692 2187 0
1 6 9 15 26 33 55 70 88 108 138 171 207 251 341 500 560 725 923 1473 1693 2188 0
2 7 10 16 27 34 56 71 89 109 139 172 208 252 342 501 561 726 924 1474 1694 2189 0
3 8 11 17 28 35 57 72 90 110 140 173 209 253 343 502 562 727 925 1475 1695 2190 0
1 4 12 18 29 36 43 73 91 111 141 174 210 254 344 503 563 728 926 1476 1696 2191 0
2 5 13 19 30 37 44 74 92 112 142 175 211 255 345 504 564 729 927 1477 1697 2192 0
3 6 14 20 31 38 45 75 93 113 143 176 212 256 346 505 565 730 928 1478 1698 2193 0
1 7 9 21 23 39 46 58 94 114 144 177 213 257 347 506 566 731 929 1479 1699 2194 0
2 8 10 22 24 40 47 59 95 115 145 178 214 258 348 507 567 732 930 1480 1700 2195 0
3 4 11 15 25 41 48 60 76 116 146 179 215 259 349 508 568 733 931 1481 1701 2196 0
1 5 12 16 26 42 49 61 77 117 147 180 216 260 350 509 569 734 932 1482 1702 2197 0
2 6 13 17 27 32 50 62 78 118 148 181 217 261 351 510 570 735 933 1483 1703 2198 0
3 7 14 18 28 33 51 63 79 119 149 182 218 262 352 511 571 736 934 1484 1704 2199 0
1 8 9 19 29 34 52 64 80 120 150 183 219 263 353 512 572 737 935 1485 1705 2200 0
2 4 10 20 30 35 53 65 81 121 151 184 220 264 354 513 573 738 936 1486 1706 2201 0
3 5 11 21 31 36 54 66 82 122 152 185 221 265 355 514 574 739 937 1487 1707 2202 0
1 6 12 22 23 37 55 67 83 123 153 186 222 266 356 515 575 740 938 1488 1708 2203 0
2 7 13 15 24 38 56 68 84 124 154 187 223 267 357 516 576 741 939 1489 1709 2204 0
3 8 14 16 25 39 57 69 85 125 155 188 224 268 358 517 577 742 940 1490 1710 2205 0
1 4 9 17 26 40 43 70 86 96 156 189 225 269 359 518 578 743 941 1491 1711 2206 0
2 5 10 18 27 41 44 71 87 97 157 190 226 270 360 519 579 744 942 1492 1712 2207 0
3 6 11 19 28 42 45 72 88 98 158 191 227 271 361 520 580 745 943 1493 1713 2208 0
1 7 12 20 29 32 46 73 89 99 126 192 228 272 362 521 581 746 944 1494 1714 2209 0
2 8 13 21 30 33 47 74 90 100 127 193 229 273 363 522 582 747 945 1495 1715 2210 0
3 4 14 22 31 34 48 75 91 101 128 194 230 274 364 523 583 748 946 1496 1716 2211 0
1 5 9 15 23 35 49 58 92 102 129 159 231 275 365 524 584 749 947 1497 1717 2212 0
2 6 10 16 24 36 50 59 93 103 130 160 232 276 366 525 585 750 948 1498 1718 2213 0
3 7 11 17 25 37 51 60 94 104 131 161 233 277 367 526 586 751 949 1499 1719 2214 0
1 8 12 18 26 38 52 61 95 105 132 162 234 278 368 527 587 752 950 1500 1720 2215 0
2 4 13 19 27 39 53 62 76 106 133 163 235 279 369 528 588 753 951 1501 1721 2216 0
3 5 14 20 28 40 54 63 77 107 134 164 236 280 370 529 589 754 952 1502 1722 2217 0
1 6 9 21 29 41 55 64 78 108 135 165 237 281 371 530 590 755 953 1503 1723 2218 0
2 7 10 22 30 42 56 65 79 109 136 166 238 282 372 531 591 756 954 1504 1724 2219 0
3 8 11 15 31 32 57 66 80 110 137 167 195 283 373 532 592 757 955 1505 1725 2220 0
1 4 12 16 23 33 43 67 81 111 138 168 196 284 374 533 593 758 956 1506 1726 2221 0
2 5 13 17 24 34 44 68 82 112 139 169 197 285 375 534 594 759 957 1507 1727 2222 0
3 6 14 18 25 35 45 69 83 113 140 170 198 286 376 535 595 760 958 1508 1728 2223 0
1 7 9 19 26 36 46 70 84 114 141 171 199 287 377 536 596 761 959 1509 1729 2224 0
2 8 10 20 27 37 47 71 85 115 142 172 200 288 378 537 597 762 960 1510 1730 2225 0
3 4 11 21 28 38 48 72 86 116 143 173 201 289 379 538 598 763 961 1511 1731 2226 0
1 5 12 22 29 39 49 73 87 117 144 174 202 290 380 539 599 764 962 1512 1732 2227 0
2 6 13 15 30 40 50 74 88 118 145 175 203 291 381 540 600 765 963 1513 1733 2228 0
3 7 14 16 31 41 51 75 89 119 146 176 204 292 382 541 601 766 964 1514 1734 2229 0
1 8 9 17 23 42 52 58 90 120 147 177 205 293 383 542 602 767 965 1515 1735 2230 0
2 4 10 18 24 32 53 59 91 121 148 178 206 294 384 543 603 768 966 1516 1736 2231 0
3 5 11 19 25 33 54 60 92 122 149 179 207 295 385 544 604 769 967 1517 1737 2232 0
1 6 12 20 26 34 55 61 93 123 150 180 208 296 386 545 605 770 968 1518 1738 2233 0
2 7 13 21 27 35 56 62 94 124 151 181 209 297 387 546 606 771 969 1519 1739 2234 0
3 8 14 22 28 36 57 63 95 125 152 182 210 298 388 547 607 772 970 1520 1740 2235 0
1 4 9 15 29 37 43 64 76 96 153 183 211 299 389 428 608 773 971 1521 1741 2236 0
2 5 10 16 30 38 44 65 77 97 154 184 212 300 390 429 609 774 972 1522 1742 2237 0
3 6 11 17 31 39 45 66 78 98 155 185 213 301 391 430 610 775 973 1523 1743 2238 0
1 7 12 18 23 40 46 67 79 99 156 186 214 302 392 431 611 776 974 1524 1744 2239 0
2 8 13 19 24 41 47 68 80 100 157 187 215 303 393 432 612 777 975 1525 1745 2240 0
3 4 14 20 25 42 48 69 81 101 158 188 216 304 394 433 613 778 976 1526 1746 2241 0
1 5 9 21 26 32 49 70 82 102 126 189 217 305 395 434 614 779 977 1527 1747 2242 0
2 6 10 22 27 33 50 71 83 103 127 190 218 306 396 435 615 780 978 1528 1748 2243 0
3 7 11 15 28 34 51 72 84 104 128 191 219 307 397 436 616 781 979 1529 1749 2244 0
1 8 12 16 29 35 52 73 85 105 129 192 220 308 398 437 617 782 980 1530 1750 2245 0
2 4 13 17 30 36 53 74 86 106 130 193 221 309 399 438 618 783 981 1531 1751 2246 0
3 5 14 18 31 37 54 75 87 107 131 194 222 310 400 439 619 784 982 1532 1752 2247 0
1 6 9 19 23 38 55 58 88 108 132 159 223 311 401 440 620 785 983 1533 1753 2248 0
2 7 10 20 24 39 56 59 89 109 133 160 224 312 402 441 621 786 984 1534 1754 2249 0
3 8 11 21 25 40 57 60 90 110 134 161 225 313 403 442 622 787 985 1535 1755 2250 0
1 4 12 22 26 41 43 61 91 111 135 162 226 314 404 443 623 788 986 1536 1756 2251 0
2 5 13 15 27 42 44 62 92 112 136 163 227 315 405 444 624 789 987 1537 1757 2252 0
3 6 14 16 28 32 45 63 93 113 137 164 228 316 406 445 625 790 988 1538 1758 2253 0
1 7 9 17 29 33 46 64 94 114 138 165 229 317 407 446 626 791 989 1539 1759 2254 0
2 8 10 18 30 34 47 65 95 115 139 166 230 318 408 447 627 792 990 1540 1760 2255 0
3 4 11 19 31 35 48 66 76 116 140 167 231 319 409 448 628 793 991 1541 1761 2256 0
1 5 12 20 23 36 49 67 77 117 141 168 232 320 410 449 629 794 992 1542 1762 2257 0
2 6 13 21 24 37 50 68 78 118 142 169 233 321 411 450 630 795 993 1543 1763 2258 0
3 7 14 22 25 38 51 69 79 119 143 170 234 322 412 451 631 796 994 1544 1764 2259 0
1 8 9 15 26 39 52 70 80 120 144 171 235 323 413 452 632 797 995 1545 1765 2260 0
2 4 10 16 27 40 53 71 81 121 145 172 236 324 414 453 633 798 996 1546 1766 2261 0
3 5 11 17 28 41 54 72 82 122 146 173 237 325 415 454 634 799 997 1547 1767 2262 0
1 6 12 18 29 42 55 73 83 123 147 174 238 326 416 455 635 800 998 1548 1768 2263 0
2 7 13 19 30 32 56 74 84 124 148 175 195 327 417 456 636 801 999 1549 1769 2264 0
3 8 14 20 31 33 57 75 85 125 149 176 196 328 418 457 637 802 1000 1550 1770 2265 0
1 4 9 21 23 34 43 58 86 96 150 177 197 239 419 458 638 803 1001 1551 1771 2266 0
2 5 10 22 24 35 44 59 87 97 151 178 198 240 420 459 639 804 1002 1552 1772 2267 0
3 6 11 15 25 36 45 60 88 98 152 179 199 241 421 460 640 805 1003 1553 1773 2268 0
1 7 12 16 26 37 46 61 89 99 153 180 200 242 422 461 641 806 1004 1554 1774 2269 0
2 8 13 17 27 38 47 62 90 100 154 181 201 243 423 462 642 807 1005 1555 1775 2270 0
3 4 14 18 28 39 48 63 91 101 155 182 202 244 424 463 643 808 1006 1556 1776 2271 0
1 5 9 19 29 40 49 64 92 102 156 183 203 245 425 464 644 809 1007 1557 1777 2272 0
2 6 10 20 30 41 50 65 93 103 157 184 204 246 426 465 645 810 1008 1558 1778 2273 0
3 7 11 21 31 42 51 66 94 104 158 185 205 247 427 466 646 811 1009 1559 1779 2274 0
1 8 12 22 23 32 52 67 95 105 126 186 206 248 329 467 647 812 1010 1560 1780 2275 0
2 4 13 15 24 33 53 68 76 106 127 187 207 249 330 468 648 813 1011 1561 1781 2276 0
3 5 14 16 25 34 54 69 77 107 128 188 208 250 331 469 649 814 1012 1562 1782 2277 0
1 6 9 17 26 35 55 70 78 108 129 189 209 251 332 470 650 815 1013 1563 1783 2278 0
2 7 10 18 27 36 56 71 79 109 130 190 210 252 333 471 651 816 1014 1564 1784 2279 0
3 8 11 19 28 37 57 72 80 110 131 191 211 253 334 472 652 817 1015 1565 1785 2280 0
1 4 12 20 29 38 43 73 81 111 132 192 212 254 335 473 653 818 1016 1566 1786 2281 0
2 5 13 21 30 39 44 74 82 112 133 193 213 255 336 474 654 819 1017 1567 1787 2282 0
3 6 14 22 31 40 45 75 83 113 134 194 214 256 337 475 655 820 1018 1568 1788 2283 0
1 7 9 15 23 41 46 58 84 114 135 159 215 257 338 476 656 821 1019 1569 1789 2284 0
2 8 10 16 24 42 47 59 85 115 136 160 216 258 339 477 657 822 1020 1570 1790 2285 0
3 4 11 17 25 32 48 60 86 116 137 161 217 259 340 478 658 823 1021 1571 1791 2286 0
1 5 12 18 26 33 49 61 87 117 138 162 218 260 341 479 659 824 1022 1572 1792 2287 0
2 6 13 19 27 34 50 62 88 118 139 163 219 261 342 480 660 825 1023 1573 1793 2288 0
3 7 14 20 28 35 51 63 89 119 140 164 220 262 343 481 661 826 1024 1574 1794 2289 0
1 8 9 21 29 36 52 64 90 120 141 165 221 263 344 482 662 827 1025 1575 1795 2290 0
2 4 10 22 30 37 53 65 91 121 142 166 222 264 345 483 663 828 1026 1576 1796 2291 0
3 5 11 15 31 38 54 66 92 122 143 167 223 265 346 484 664 829 1027 1577 1797 2292 0
1 6 12 16 23 39 55 67 93 123 144 168 224 266 347 485 665 830 1028 1578 1798 2293 0
2 7 13 17 24 40 56 68 94 124 145 169 225 267 348 486 666 831 1029 1579 1799 2294 0
3 8 14 18 25 41 57 69 95 125 146 170 226 268 349 487 667 832 1030 1580 1800 2295 0
1 4 9 19 26 42 43 70 76 96 147 171 227 269 350 488 668 833 1031 1581 1801 2296 0
2 5 10 20 27 32 44 71 77 97 148 172 228 270 351 489 669 834 1032 1582 1802 2297 0
3 6 11 21 28 33 45 72 78 98 149 173 229 271 352 490 670 835 1033 1583 1803 2298 0
1 7 12 22 29 34 46 73 79 99 150 174 230 272 353 491 671 836 1034 1584 1804 2299 0
2 8 13 15 30 35 47 74 80 100 151 175 231 273 354 492 672 837 1035 1585 1805 2300 0
3 4 14 16 31 36 48 75 81 101 152 176 232 274 355 493 673 838 1036 1586 1806 2301 0
1 5 9 17 23 37 49 58 82 102 153 177 233 275 356 494 674 839 1037 1587 1807 2302 0
2 6 10 18 24 38 50 59 83 103 154 178 234 276 357 495 675 840 1038 1588 1808 2303 0
3 7 11 19 25 39 51 60 84 104 155 179 235 277 358 496 676 841 1039 1589 1809 2304 0
1 8 12 20 26 40 52 61 85 105 156 180 236 278 359 497 677 842 1040 1590 1810 2305 0
2 4 13 21 27 41 53 62 86 106 157 181 237 279 360 498 678 843 1041 1591 1811 2306 0
3 5 14 22 28 42 54 63 87 107 158 182 238 280 361 499 679 844 1042 1592 1812 2307 0
1 6 9 15 29 32 55 64 88 108 126 183 195 281 362 500 680 845 1043 1593 1813 2308 0
2 7 10 16 30 33 56 65 89 109 127 184 196 282 363 501 681 846 1044 1594 1814 2309 0
3 8 11 17 31 34 57 66 90 110 128 185 197 283 364 502 682 847 1045 1595 1815 2310 0
1 4 12 18 23 35 43 67 91 111 129 186 198 284 365 503 683 848 1046 1596 1816 2311 0
2 5 13 19 24 36 44 68 92 112 130 187 199 285 366 504 684 849 1047 1597 1817 2312 0
3 6 14 20 25 37 45 69 93 113 131 188 200 286 367 505 685 850 1048 1598 1818 2313 0
1 7 9 21 26 38 46 70 94 114 132 189 201 287 368 506 686 851 1049 1599 1819 2314 0
2 8 10 22 27 39 47 71 95 115 133 190 202 288 369 507 687 852 1050 1600 1820 2315 0
3 4 11 15 28 40 48 72 76 116 134 191 203 289 370 508 688 853 1051 1601 1821 2316 0
1 5 12 16 29 41 49 73 77 117 135 192 204 290 371 509 689 854 1052 1602 1822 2317 0
2 6 13 17 30 42 50 74 78 118 136 193 205 291 372 510 690 855 1053 1603 1823 2318 0
3 7 14 18 31 32 51 75 79 119 137 194 206 292 373 511 691 856 1054 1604 1824 2319 0
1 8 9 19 23 33 52 58 80 120 138 159 207 293 374 512 692 857 1055 1605 1825 2320 0
2 4 10 20 24 34 53 59 81 121 139 160 208 294 375 513 693 858 1056 1606 1826 2321 0
3 5 11 21 25 35 54 60 82 122 140 161 209 295 376 514 694 859 1057 1607 1827 2322 0
1 6 12 22 26 36 55 61 83 123 141 162 210 296 377 515 695 860 1058 1608 1828 2323 0
2 7 13 15 27 37 56 62 84 124 142 163 211 297 378 516 696 861 1059 1609 1829 2324 0
3 8 14 16 28 38 57 63 85 125 143 164 212 298 379 517 697 862 1060 1610 1830 2325 0
1 4 9 17 29 39 43 64 86 96 144 165 213 299 380 518 698 863 1061 1611 1831 2326 0
2 5 10 18 30 40 44 65 87 97 145 166 214 300 381 519 699 864 1062 1612 1832 2327 0
3 6 11 19 31 41 45 66 88 98 146 167 215 301 382 520 700 865 1063 1613 1833 2328 0
1 7 12 20 23 42 46 67 89 99 147 168 216 302 383 521 701 866 1064 1614 1834 2329 0
2 8 13 21 24 32 47 68 90 100 148 169 217 303 384 522 702 867 1065 1615 1835 2330 0
3 4 14 22 25 33 48 69 91 101 149 170 218 304 385 523 703 868 1066 1616 1836 2331 0
1 5 9 15 26 34 49 70 92 102 150 171 219 305 386 524 704 869 1067 1617 1837 2332 0
2 6 10 16 27 35 50 71 93 103 151 172 220 306 387 525 705 870 1068 1618 1838 2333 0
3 7 11 17 28 36 51 72 94 104 152 173 221 307 388 526 706 871 1069 1619 1839 2334 0
1 8 12 18 29 37 52 73 95 105 153 174 222 308 389 527 707 872 1070 1620 1840 2335 0
2 4 13 19 30 38 53 74 76 106 154 175 223 309 390 528 708 873 1071 1621 1841 2336 0
3 5 14 20 31 39 54 75 77 107 155 176 224 310 391 529 709 874 1072 1622 1842 2337 0
1 6 9 21 23 40 55 58 78 108 156 177 225 311 392 530 710 875 1073 1623 1843 2338 0
2 7 10 22 24 41 56 59 79 109 157 178 226 312 393 531 711 876 1074 1624 1844 2339 0
3 8 11 15 25 42 57 60 80 110 158 179 227 313 394 532 712 877 1075 1625 1845 2340 0
1 4 12 16 26 32 43 61 81 111 126 180 228 314 395 533 548 878 1076 1626 1846 2341 0
2 5 13 17 27 33 44 62 82 112 127 181 229 315 396 534 549 879 1077 1627 1847 2342 0
3 6 14 18 28 34 45 63 83 113 128 182 230 316 397 535 550 880 1078 1628 1848 2343 0
1 7 9 19 29 35 46 64 84 114 129 183 231 317 398 536 551 881 1079 1629 1849 2344 0
2 8 10 20 30 36 47 65 85 115 130 184 232 318 399 537 552 882 1080 1630 1850 2345 0
3 4 11 21 31 37 48 66 86 116 131 185 233 319 400 538 553 883 1081 1631 1851 2346 0
1 5 12 22 23 38 49 67 87 117 132 186 234 320 401 539 554 884 1082 1632 1852 2347 0
2 6 13 15 24 39 50 68 88 118 133 187 235 321 402 540 555 885 1083 1633 1853 2348 0
3 7 14 16 25 40 51 69 89 119 134 188 236 322 403 541 556 886 1084 1634 1854 2349 0
1 8 9 17 26 41 52 70 90 120 135 189 237 323 404 542 557 887 1085 1635 1855 2350 0
2 4 10 18 27 42 53 71 91 121 136 190 238 324 405 543 558 888 1086 1636 1856 2351 0
3 5 11 19 28 32 54 72 92 122 137 191 195 325 406 544 559 889 1087 1637 1857 2352 0
1 6 12 20 29 33 55 73 93 123 138 192 196 326 407 545 560 890 1088 1638 1858 2353 0
2 7 13 21 30 34 56 74 94 124 139 193 197 327 408 546 561 891 1089 1639 1859 2354 0
3 8 14 22 31 35 57 75 95 125 140 194 198 328 409 547 562 892 1090 1640 1860 2355 0
1 4 9 15 23 36 43 58 76 96 141 159 199 239 410 428 563 893 1091 1641 1861 2356 0
2 5 10 16 24 37 44 59 77 97 142 160 200 240 411 429 564 894 1092 1642 1862 2357 0
3 6 11 17 25 38 45 60 78 98 143 161 201 241 412 430 565 895 1093 1643 1863 2358 0
1 7 12 18 26 39 46 61 79 99 144 162 202 242 413 431 566 896 1094 1644 1864 2359 0
2 8 13 19 27 40 47 62 80 100 145 163 203 243 414 432 567 897 1095 1645 1865 2360 0
3 4 14 20 28 41 48 63 81 101 146 164 204 244 415 433 568 898 1096 1646 1866 2361 0
1 5 9 21 29 42 49 64 82 102 147 165 205 245 416 434 569 899 1097 1647 1867 2362 0
2 6 10 22 30 32 50 65 83 103 148 166 206 246 417 435 570 900 1098 1648 1868 2363 0
3 7 11 15 31 33 51 66 84 104 149 167 207 247 418 436 571 901 1099 1649 1869 2364 0
1 8 12 16 23 34 52 67 85 105 150 168 208 248 419 437 572 902 1100 1650 1870 2365 0
2 4 13 17 24 35 53 68 86 106 151 169 209 249 420 438 573 903 1101 1651 1871 2366 0
3 5 14 18 25 36 54 69 87 107 152 170 210 250 421 439 574 904 1102 1652 1872 2367 0
1 6 9 19 26 37 55 70 88 108 153 171 211 251 422 440 575 905 1103 1653 1873 2368 0
2 7 10 20 27 38 56 71 89 109 154 172 212 252 423 441 576 906 1104 1654 1874 2369 0
3 8 11 21 28 39 57 72 90 110 155 173 213 253 424 442 577 907 1105 1655 1875 2370 0
1 4 12 22 29 40 43 73 91 111 156 174 214 254 425 443 578 908 1106 1656 1876 2371 0
2 5 13 15 30 41 44 74 92 112 157 175 215 255 426 444 579 909 1107 1657 1877 2372 0
3 6 14 16 31 42 45 75 93 113 158 176 216 256 427 445 580 910 1108 1658 1878 2373 0
1 7 9 17 23 32 46 58 94 114 126 177 217 257 329 446 581 713 1109 1659 1879 2374 0
2 8 10 18 24 33 47 59 95 115 127 178 218 258 330 447 582 714 1110 1660 1880 2375 0
3 4 11 19 25 34 48 60 76 116 128 179 219 259 331 448 583 715 1111 1661 1881 2376 0
1 5 12 20 26 35 49 61 77 117 129 180 220 260 332 449 584 716 1112 1662 1882 2377 0
2 6 13 21 27 36 50 62 78 118 130 181 221 261 333 450 585 717 1113 1663 1883 2378 0
3 7 14 22 28 37 51 63 79 119 131 182 222 262 334 451 586 718 1114 1664 1884 2379 0
1 8 9 15 29 38 52 64 80 120 132 183 223 263 335 452 587 719 1115 1665 1885 2380 0
2 4 10 16 30 39 53 65 81 121 133 184 224 264 336 453 588 720 1116 1666 1886 2381 0
3 5 11 17 31 40 54 66 82 122 134 185 225 265 337 454 589 721 1117 1667 1887 2382 0
1 6 12 18 23 41 55 67 83 123 135 186 226 266 338 455 590 722 1118 1668 1888 2383 0
2 7 13 19 24 42 56 68 84 124 136 187 227 267 339 456 591 723 1119 1669 1889 2384 0
3 8 14 20 25 32 57 69 85 125 137 188 228 268 340 457 592 724 1120 1670 1890 2385 0
1 4 9 21 26 33 43 70 86 96 138 189 229 269 341 458 593 725 1121 1671 1891 2386 0
2 5 10 22 27 34 44 71 87 97 139 190 230 270 342 459 594 726 1122 1672 1892 2387 0
3 6 11 15 28 35 45 72 88 98 140 191 231 271 343 460 595 727 1123 1673 1893 2388 0
1 7 12 16 29 36 46 73 89 99 141 192 232 272 344 461 596 728 1124 1674 1894 2389 0
2 8 13 17 30 37 47 74 90 100 142 193 233 273 345 462 597 729 1125 1675 1895 2390 0
3 4 14 18 31 38 48 75 91 101 143 194 234 274 346 463 598 730 1126 1676 1896 2391 0
1 5 9 19 23 39 49 58 92 102 144 159 235 275 347 464 599 731 1127 1677 1897 2392 0
2 6 10 20 24 40 50 59 93 103 145 160 236 276 348 465 600 732 1128 1678 1898 2393 0
3 7 11 21 25 41 51 60 94 104 146 161 237 277 349 466 601 733 1129 1679 1899 2394 0
1 8 12 22 26 42 52 61 95 105 147 162 238 278 350 467 602 734 1130 1680 1900 2395 0
2 4 13 15 27 32 53 62 76 106 148 163 195 279 351 468 603 735 1131 1241 1901 2396 0
3 5 14 16 28 33 54 63 77 107 149 164 196 280 352 469 604 736 1132 1242 1902 2397 0
1 6 9 17 29 34 55 64 78 108 150 165 197 281 353 470 605 737 1133 1243 1903 2398 0
2 7 10 18 30 35 56 65 79 109 151 166 198 282 354 471 606 738 1134 1244 1904 2399 0
3 8 11 19 31 36 57 66 80 110 152 167 199 283 355 472 607 739 1135 1245 1905 2400 0
1 4 12 20 23 37 43 67 81 111 153 168 200 284 356 473 608 740 1136 1246 1906 2401 0
2 5 13 21 24 38 44 68 82 112 154 169 201 285 357 474 609 741 1137 1247 1907 2402 0
3 6 14 22 25 39 45 69 83 113 155 170 202 286 358 475 610 742 1138 1248 1908 2403 0
1 7 9 15 26 40 46 70 84 114 156 171 203 287 359 476 611 743 1139 1249 1909 2404 0
2 8 10 16 27 41 47 71 85 115 157 172 204 288 360 477 612 744 1140 1250 1910 2405 0
3 4 11 17 28 42 48 72 86 116 158 173 205 289 361 478 613 745 1141 1251 1911 2406 0
1 5 12 18 29 32 49 73 87 117 126 174 206 290 362 479 614 746 1142 1252 1912 2407 0
2 6 13 19 30 33 50 74 88 118 127 175 207 291 363 480 615 747 1143 1253 1913 2408 0
3 7 14 20 31 34 51 75 89 119 128 176 208 292 364 481 616 748 1144 1254 1914 2409 0
1 8 9 21 23 35 52 58 90 120 129 177 209 293 365 482 617 749 1145 1255 1915 2410 0
2 4 10 22 24 36 53 59 91 121 130 178 210 294 366 483 618 750 1146 1256 1916 2411 0
3 5 11 15 25 37 54 60 92 122 131 179 211 295 367 484 619 751 1147 1257 1917 2412 0
1 6 12 16 26 38 55 61 93 123 132 180 212 296 368 485 620 752 1148 1258 1918 2413 0
2 7 13 17 27 39 56 62 94 124 133 181 213 297 369 486 621 753 1149 1259 1919 2414 0
3 8 14 18 28 40 57 63 95 125 134 182 214 298 370 487 622 754 1150 1260 1920 2415 0
1 4 9 19 29 41 43 64 76 96 135 183 215 299 371 488 623 755 1151 1261 1921 2416 0
2 5 10 20 30 42 44 65 77 97 136 184 216 300 372 489 624 756 1152 1262 1922 2417 0
3 6 11 21 31 32 45 66 78 98 137 185 217 301 373 490 625 757 1153 1263 1923 2418 0
1 7 12 22 23 33 46 67 79 99 138 186 218 302 374 491 626 758 1154 1264 1924 2419 0
2 8 13 15 24 34 47 68 80 100 139 187 219 303 375 492 627 759 1155 1265 1925 2420 0
3 4 14 16 25 35 48 69 81 101 140 188 220 304 376 493 628 760 1156 1266 1926 2421 0
1 5 9 17 26 36 49 70 82 102 141 189 221 305 377 494 629 761 1157 1267 1927 2422 0
2 6 10 18 27 37 50 71 83 103 142 190 222 306 378 495 630 762 1158 1268 1928 2423 0
3 7 11 19 28 38 51 72 84 104 143 191 223 307 379 496 631 763 1159 1269 1929 2424 0
1 8 12 20 29 39 52 73 85 105 144 192 224 308 380 497 632 764 1160 1270 1930 2425 0
2 4 13 21 30 40 53 74 86 106 145 193 225 309 381 498 633 765 1161 1271 1931 2426 0
3 5 14 22 31 41 54 75 87 107 146 194 226 310 382 499 634 766 1162 1272 1932 2427 0
1 6 9 15 23 42 55 58 88 108 147 159 227 311 383 500 635 767 1163 1273 1933 2428 0
2 7 10 16 24 32 56 59 89 109 148 160 228 312 384 501 636 768 1164 1274 1934 2429 0
3 8 11 17 25 33 57 60 90 110 149 161 229 313 385 502 637 769 1165 1275 1935 2430 0
1 4 12 18 26 34 43 61 91 111 150 162 230 314 386 503 638 770 1166 1276 1936 2431 0
2 5 13 19 27 35 44 62 92 112 151 163 231 315 387 504 639 771 1167 1277 1937 2432 0
3 6 14 20 28 36 45 63 93 113 152 164 232 316 388 505 640 772 1168 1278 1938 2433 0
1 7 9 21 29 37 46 64 94 114 153 165 233 317 389 506 641 773 1169 1279 1939 2434 0
2 8 10 22 30 38 47 65 95 115 154 166 234 318 390 507 642 774 1170 1280 1940 2435 0
3 4 11 15 31 39 48 66 76 116 155 167 235 319 391 508 643 775 1171 1281 1941 2436 0
1 5 12 16 23 40 49 67 77 117 156 168 236 320 392 509 644 776 1172 1282 1942 2437 0
2 6 13 17 24 41 50 68 78 118 157 169 237 321 393 510 645 777 1173 1283 1943 2438 0
3 7 14 18 25 42 51 69 79 119 158 170 238 322 394 511 646 778 1174 1284 1944 2439 0
1 8 9 19 26 32 52 70 80 120 126 171 195 323 395 512 647 779 1175 1285 1945 2440 0
2 4 10 20 27 33 53 71 81 121 127 172 196 324 396 513 648 780 1176 1286 1946 2441 0
3 5 11 21 28 34 54 72 82 122 128 173 197 325 397 514 649 781 1177 1287 1947 2442 0
1 6 12 22 29 35 55 73 83 123 129 174 198 326 398 515 650 782 1178 1288 1948 2443 0
2 7 13 15 30 36 56 74 84 124 130 175 199 327 399 516 651 783 1179 1289 1949 2444 0
3 8 14 16 31 37 57 75 85 125 131 176 200 328 400 517 652 784 1180 1290 1950 2445 0
1 4 9 17 23 38 43 58 86 96 132 177 201 239 401 518 653 785 1181 1291 1951 2446 0
2 5 10 18 24 39 44 59 87 97 133 178 202 240 402 519 654 786 1182 1292 1952 2447 0
3 6 11 19 25 40 45 60 88 98 134 179 203 241 403 520 655 787 1183 1293 1953 2448 0
1 7 12 20 26 41 46 61 89 99 135 180 204 242 404 521 656 788 1184 1294 1954 2449 0
2 8 13 21 27 42 47 62 90 100 136 181 205 243 405 522 657 789 1185 1295 1955 2450 0
3 4 14 22 28 32 48 63 91 101 137 182 206 244 406 523 658 790 1186 1296 1956 2451 0
1 5 9 15 29 33 49 64 92 102 138 183 207 245 407 524 659 791 1187 1297 1957 2452 0
2 6 10 16 30 34 50 65 93 103 139 184 208 246 408 525 660 792 1188 1298 1958 2453 0
3 7 11 17 31 35 51 66 94 104 140 185 209 247 409 526 661 793 1189 1299 1959 2454 0
1 8 12 18 23 36 52 67 95 105 141 186 210 248 410 527 662 794 1190 1300 1960 2455 0
2 4 13 19 24 37 53 68 76 106 142 187 211 249 411 528 663 795 1191 1301 1961 2456 0
3 5 14 20 25 38 54 69 77 107 143 188 212 250 412 529 664 796 1192 1302 1962 2457 0
1 6 9 21 26 39 55 70 78 108 144 189 213 251 413 530 665 797 1193 1303 1963 2458 0
2 7 10 22 27 40 56 71 79 109 145 190 214 252 414 531 666 798 1194 1304 1964 2459 0
3 8 11 15 28 41 57 72 80 110 146 191 215 253 415 532 667 799 1195 1305 1965 2460 0
1 4 12 16 29 42 43 73 81 111 147 192 216 254 416 533 668 800 1196 1306 1966 2461 0
2 5 13 17 30 32 44 74 82 112 148 193 217 255 417 534 669 801 1197 1307 1967 2462 0
3 6 14 18 31 33 45 75 83 113 149 194 218 256 418 535 670 802 1198 1308 1968 2463 0
1 7 9 19 23 34 46 58 84 114 150 159 219 257 419 536 671 803 1199 1309 1969 2464 0
2 8 10 20 24 35 47 59 85 115 151 160 220 258 420 537 672 804 1200 1310 1970 2465 0
3 4 11 21 25 36 48 60 86 116 152 161 221 259 421 538 673 805 1201 1311 1971 2466 0
1 5 12 22 26 37 49 61 87 117 153 162 222 260 422 539 674 806 1202 1312 1972 2467 0
2 6 13 15 27 38 50 62 88 118 154 163 223 261 423 540 675 807 1203 1313 1973 2468 0
3 7 14 16 28 39 51 63 89 119 155 164 224 262 424 541 676 808 1204 1314 1974 2469 0
1 8 9 17 29 40 52 64 90 120 156 165 225 263 425 542 677 809 1205 1315 1975 2470 0
2 4 10 18 30 41 53 65 91 121 157 166 226 264 426 543 678 810 1206 1316 1976 2471 0
3 5 11 19 31 42 54 66 92 122 158 167 227 265 427 544 679 811 1207 1317 1977 2472 0
1 6 12 20 23 32 55 67 93 123 126 168 228 266 329 545 680 812 1208 1318 1978 2473 0
2 7 13 21 24 33 56 68 94 124 127 169 229 267 330 546 681 813 1209 1319 1979 2474 0
3 8 14 22 25 34 57 69 95 125 128 170 230 268 331 547 682 814 1210 1320 1980 2475 0
1 4 9 15 26 35 43 70 76 96 129 171 231 269 332 428 683 815 1211 1321 1981 2476 0
2 5 10 16 27 36 44 71 77 97 130 172 232 270 333 429 684 816 1212 1322 1982 2477 0
3 6 11 17 28 37 45 72 78 98 131 173 233 271 334 430 685 817 1213 1323 1983 2478 0
1 7 12 18 29 38 46 73 79 99 132 174 234 272 335 431 686 818 1214 1324 1984 2479 0
2 8 13 19 30 39 47 74 80 100 133 175 235 273 336 432 687 819 1215 1325 1985 2480 0
3 4 14 20 31 40 48 75 81 101 134 176 236 274 337 433 688 820 1216 1326 1986 2481 0
1 5 9 21 23 41 49 58 82 102 135 177 237 275 338 434 689 821 1217 1327 1987 2482 0
2 6 10 22 24 42 50 59 83 103 136 178 238 276 339 435 690 822 1218 1328 1988 2483 0
3 7 11 15 25 32 51 60 84 104 137 179 195 277 340 436 691 823 1219 1329 1989 2484 0
1 8 12 16 26 33 52 61 85 105 138 180 196 278 341 437 692 824 1220 1330 1990 2485 0
2 4 13 17 27 34 53 62 86 106 139 181 197 279 342 438 693 825 1221 1331 1991 2486 0
3 5 14 18 28 35 54 63 87 107 140 182 198 280 343 439 694 826 1222 1332 1992 2487 0
1 6 9 19 29 36 55 64 88 108 141 183 199 281 344 440 695 827 1223 1333 1993 2488 0
2 7 10 20 30 37 56 65 89 109 142 184 200 282 345 441 696 828 1224 1334 1994 2489 0
3 8 11 21 31 38 57 66 90 110 143 185 201 283 346 442 697 829 1225 1335 1995 2490 0
1 4 12 22 23 39 43 67 91 111 144 186 202 284 347 443 698 830 1226 1336 1996 2491 0
2 5 13 15 24 40 44 68 92 112 145 187 203 285 348 444 699 831 1227 1337 1997 2492 0
3 6 14 16 25 41 45 69 93 113 146 188 204 286 349 445 700 832 1228 1338 1998 2493 0
1 7 9 17 26 42 46 70 94 114 147 189 205 287 350 446 701 833 1229 1339 1999 2494 0
2 8 10 18 27 32 47 71 95 115 148 190 206 288 351 447 702 834 1230 1340 2000 2495 0
3 4 11 19 28 33 48 72 76 116 149 191 207 289 352 448 703 835 1231 1341 2001 2496 0
1 5 12 20 29 34 49 73 77 117 150 192 208 290 353 449 704 836 1232 1342 2002 2497 0
2 6 13 21 30 35 50 74 78 118 151 193 209 291 354 450 705 837 1233 1343 2003 2498 0
3 7 14 22 31 36 51 75 79 119 152 194 210 292 355 451 706 838 1234 1344 2004 2499 0
1 8 9 15 23 37 52 58 80 120 153 159 211 293 356 452 707 839 1235 1345 2005 2500 0
2 4 10 16 24 38 53 59 81 121 154 160 212 294 357 453 708 840 1236 1346 2006 2501 0
3 5 11 17 25 39 54 60 82 122 155 161 213 295 358 454 709 841 1237 1347 2007 2502 0
1 6 12 18 26 40 55 61 83 123 156 162 214 296 359 455 710 842 1238 1348 2008 2503 0
2 7 13 19 27 41 56 62 84 124 157 163 215 297 360 456 711 843 1239 1349 2009 2504 0
3 8 14 20 28 42 57 63 85 125 158 164 216 298 361 457 712 844 1240 1350 2010 2505 0
1 4 9 21 29 32 43 64 86 96 126 165 217 299 362 458 548 845 911 1351 2011 2506 0
2 5 10 22 30 33 44 65 87 97 127 166 218 300 363 459 549 846 912 1352 2012 2507 0
3 6 11 15 31 34 45 66 88 98 128 167 219 301 364 460 550 847 913 1353 2013 2508 0
1 7 12 16 23 35 46 67 89 99 129 168 220 302 365 461 551 848 914 1354 2014 2509 0
2 8 13 17 24 36 47 68 90 100 130 169 221 303 366 462 552 849 915 1355 2015 2510 0
3 4 14 18 25 37 48 69 91 101 131 170 222 304 367 463 553 850 916 1356 2016 2511 0
1 5 9 19 26 38 49 70 92 102 132 171 223 305 368 464 554 851 917 1357 2017 2512 0
2 6 10 20 27 39 50 71 93 103 133 172 224 306 369 465 555 852 918 1358 2018 2513 0
3 7 11 21 28 40 51 72 94 104 134 173 225 307 370 466 556 853 919 1359 2019 2514 0
1 8 12 22 29 41 52 73 95 105 135 174 226 308 371 467 557 854 920 1360 2020 2515 0
2 4 13 15 30 42 53 74 76 106 136 175 227 309 372 468 558 855 921 1361 2021 2516 0
3 5 14 16 31 32 54 75 77 107 137 176 228 310 373 469 559 856 922 1362 2022 2517 0
1 6 9 17 23 33 55 58 78 108 138 177 229 311 374 470 560 857 923 1363 2023 2518 0
2 7 10 18 24 34 56 59 79 109 139 178 230 312 375 471 561 858 924 1364 2024 2519 0
3 8 11 19 25 35 57 60 80 110 140 179 231 313 376 472 562 859 925 1365 2025 2520 0
1 4 12 20 26 36 43 61 81 111 141 180 232 314 377 473 563 860 926 1366 2026 2521 0
2 5 13 21 27 37 44 62 82 112 142 181 233 315 378 474 564 861 927 1367 2027 2522 0
3 6 14 22 28 38 45 63 83 113 143 182 234 316 379 475 565 862 928 1368 2028 2523 0
1 7 9 15 29 39 46 64 84 114 144 183 235 317 380 476 566 863 929 1369 2029 2524 0
2 8 10 16 30 40 47 65 85 115 145 184 236 318 381 477 567 864 930 1370 2030 2525 0
3 4 11 17 31 41 48 66 86 116 146 185 237 319 382 478 568 865 931 1371 2031 2526 0
1 5 12 18 23 42 49 67 87 117 147 186 238 320 383 479 569 866 932 1372 2032 2527 0
2 6 13 19 24 32 50 68 88 118 148 187 195 321 384 480 570 867 933 1373 2033 2528 0
3 7 14 20 25 33 51 69 89 119 149 188 196 322 385 481 571 868 934 1374 2034 2529 0
1 8 9 21 26 34 52 70 90 120 150 189 197 323 386 482 572 869 935 1375 2035 2530 0
2 4 10 22 27 35 53 71 91 121 151 190 198 324 387 483 573 870 936 1376 2036 2531 0
3 5 11 15 28 36 54 72 92 122 152 191 199 325 388 484 574 871 937 1377 2037 2532 0
1 6 12 16 29 37 55 73 93 123 153 192 200 326 389 485 575 872 938 1378 2038 2533 0
2 7 13 17 30 38 56 74 94 124 154 193 201 327 390 486 576 873 939 1379 2039 2534 0
3 8 14 18 31 39 57 75 95 125 155 194 202 328 391 487 577 874 940 1380 2040 2535 0
1 4 9 19 23 40 43 58 76 96 156 159 203 239 392 488 578 875 941 1381 2041 2536 0
2 5 10 20 24 41 44 59 77 97 157 160 204 240 393 489 579 876 942 1382 2042 2537 0
3 6 11 21 25 42 45 60 78 98 158 161 205 241 394 490 580 877 943 1383 2043 2538 0
1 7 12 22 26 32 46 61 79 99 126 162 206 242 395 491 581 878 944 1384 2044 2539 0
2 8 13 15 27 33 47 62 80 100 127 163 207 243 396 492 582 879 945 1385 2045 2540 0
3 4 14 16 28 34 48 63 81 101 128 164 208 244 397 493 583 880 946 1386 2046 2541 0
1 5 9 17 29 35 49 64 82 102 129 165 209 245 398 494 584 881 947 1387 2047 2542 0
2 6 10 18 30 36 50 65 83 103 130 166 210 246 399 495 585 882 948 1388 2048 2543 0
3 7 11 19 31 37 51 66 84 104 131 167 211 247 400 496 586 883 949 1389 2049 2544 0
1 8 12 20 23 38 52 67 85 105 132 168 212 248 401 497 587 884 950 1390 2050 2545 0
2 4 13 21 24 39 53 68 86 106 133 169 213 249 402 498 588 885 951 1391 2051 2546 0
3 5 14 22 25 40 54 69 87 107 134 170 214 250 403 499 589 886 952 1392 2052 2547 0
1 6 9 15 26 41 55 70 88 108 135 171 215 251 404 500 590 887 953 1393 2053 2548 0
2 7 10 16 27 42 56 71 89 109 136 172 216 252 405 501 591 888 954 1394 2054 2549 0
3 8 11 17 28 32 57 72 90 110 137 173 217 253 406 502 592 889 955 1395 2055 2550 0
1 4 12 18 29 33 43 73 91 111 138 174 218 254 407 503 593 890 956 1396 2056 2551 0
2 5 13 19 30 34 44 74 92 112 139 175 219 255 408 504 594 891 957 1397 2057 2552 0
3 6 14 20 31 35 45 75 93 113 140 176 220 256 409 505 595 892 958 1398 2058 2553 0
1 7 9 21 23 36 46 58 94 114 141 177 221 257 410 506 596 893 959 1399 2059 2554 0
2 8 10 22 24 37 47 59 95 115 142 178 222 258 411 507 597 894 960 1400 2060 2555 0
3 4 11 15 25 38 48 60 76 116 143 179 223 259 412 508 598 895 961 1401 2061 2556 0
1 5 12 16 26 39 49 61 77 117 144 180 224 260 413 509 599 896 962 1402 2062 2557 0
2 6 13 17 27 40 50 62 78 118 145 181 225 261 414 510 600 897 963 1403 2063 2558 0
3 7 14 18 28 41 51 63 79 119 146 182 226 262 415 511 601 898 964 1404 2064 2559 0
1 8 9 19 29 42 52 64 80 120 147 183 227 263 416 512 602 899 965 1405 2065 2560 0
2 4 10 20 30 32 53 65 81 121 148 184 228 264 417 513 603 900 966 1406 2066 2561 0
3 5 11 21 31 33 54 66 82 122 149 185 229 265 418 514 604 901 967 1407 2067 2562 0
1 6 12 22 23 34 55 67 83 123 150 186 230 266 419 515 605 902 968 1408 2068 2563 0
2 7 13 15 24 35 56 68 84 124 151 187 231 267 420 516 606 903 969 1409 2069 2564 0
3 8 14 16 25 36 57 69 85 125 152 188 232 268 421 517 607 904 970 1410 2070 2565 0
1 4 9 17 26 37 43 70 86 96 153 189 233 269 422 518 608 905 971 1411 2071 2566 0
2 5 10 18 27 38 44 71 87 97 154 190 234 270 423 519 609 906 972 1412 2072 2567 0
3 6 11 19 28 39 45 72 88 98 155 191 235 271 424 520 610 907 973 1413 2073 2568 0
1 7 12 20 29 40 46 73 89 99 156 192 236 272 425 521 611 908 974 1414 2074 2569 0
2 8 13 21 30 41 47 74 90 100 157 193 237 273 426 522 612 909 975 1415 2075 2570 0
3 4 14 22 31 42 48 75 91 101 158 194 238 274 427 523 613 910 976 1416 2076 2571 0
1 5 9 15 23 32 49 58 92 102 126 159 195 275 329 524 614 713 977 1417 2077 2572 0
2 6 10 16 24 33 50 59 93 103 127 160 196 276 330 525 615 714 978 1418 2078 2573 0
3 7 11 17 25 34 51 60 94 104 128 161 197 277 331 526 616 715 979 1419 2079 2574 0
1 8 12 18 26 35 52 61 95 105 129 162 198 278 332 527 617 716 980 1420 2080 2575 0
2 4 13 19 27 36 53 62 76 106 130 163 199 279 333 528 618 717 981 1421 2081 2576 0
3 5 14 20 28 37 54 63 77 107 131 164 200 280 334 529 619 718 982 1422 2082 2577 0
1 6 9 21 29 38 55 64 78 108 132 165 201 281 335 530 620 719 983 1423 2083 2578 0
2 7 10 22 30 39 56 65 79 109 133 166 202 282 336 531 621 720 984 1424 2084 2579 0
3 8 11 15 31 40 57 66 80 110 134 167 203 283 337 532 622 721 985 1425 2085 2580 0
1 4 12 16 23 41 43 67 81 111 135 168 204 284 338 533 623 722 986 1426 2086 2581 0
2 5 13 17 24 42 44 68 82 112 136 169 205 285 339 534 624 723 987 1427 2087 2582 0
3 6 14 18 25 32 45 69 83 113 137 170 206 286 340 535 625 724 988 1428 2088 2583 0
1 7 9 19 26 33 46 70 84 114 138 171 207 287 341 536 626 725 989 1429 2089 2584 0
2 8 10 20 27 34 47 71 85 115 139 172 208 288 342 537 627 726 990 1430 2090 2585 0
3 4 11 21 28 35 48 72 86 116 140 173 209 289 343 538 628 727 991 1431 2091 2586 0
1 5 12 22 29 36 49 73 87 117 141 174 210 290 344 539 629 728 992 1432 2092 2587 0
2 6 13 15 30 37 50 74 88 118 142 175 211 291 345 540 630 729 993 1433 2093 2588 0
3 7 14 16 31 38 51 75 89 119 143 176 212 292 346 541 631 730 994 1434 2094 2589 0
1 8 9 17 23 39 52 58 90 120 144 177 213 293 347 542 632 731 995 1435 2095 2590 0
2 4 10 18 24 40 53 59 91 121 145 178 214 294 348 543 633 732 996 1436 2096 2591 0
3 5 11 19 25 41 54 60 92 122 146 179 215 295 349 544 634 733 997 1437 2097 2592 0
1 6 12 20 26 42 55 61 93 123 147 180 216 296 350 545 635 734 998 1438 2098 2593 0
2 7 13 21 27 32 56 62 94 124 148 181 217 297 351 546 636 735 999 1439 2099 2594 0
3 8 14 22 28 33 57 63 95 125 149 182 218 298 352 547 637 736 1000 1440 2100 2595 0
1 4 9 15 29 34 43 64 76 96 150 183 219 299 353 428 638 737 1001 1441 2101 2596 0
2 5 10 16 30 35 44 65 77 97 151 184 220 300 354 429 639 738 1002 1442 2102 2597 0
3 6 11 17 31 36 45 66 78 98 152 185 221 301 355 430 640 739 1003 1443 2103 2598 0
1 7 12 18 23 37 46 67 79 99 153 186 222 302 356 431 641 740 1004 1444 2104 2599 0
2 8 13 19 24 38 47 68 80 100 154 187 223 303 357 432 642 741 1005 1445 2105 2600 0
3 4 14 20 25 39 48 69 81 101 155 188 224 304 358 433 643 742 1006 1446 2106 2601 0
1 5 9 21 26 40 49 70 82 102 156 189 225 305 359 434 644 743 1007 1447 2107 2602 0
2 6 10 22 27 41 50 71 83 103 157 190 226 306 360 435 645 744 1008 1448 2108 2603 0
3 7 11 15 28 42 51 72 84 104 158 191 227 307 361 436 646 745 1009 1449 2109 2604 0
1 8 12 16 29 32 52 73 85 105 126 192 228 308 362 437 647 746 1010 1450 2110 2605 0
2 4 13 17 30 33 53 74 86 106 127 193 229 309 363 438 648 747 1011 1451 2111 2606 0
3 5 14 18 31 34 54 75 87 107 128 194 230 310 364 439 649 748 1012 1452 2112 2607 0
1 6 9 19 23 35 55 58 88 108 129 159 231 311 365 440 650 749 1013 1453 2113 2608 0
2 7 10 20 24 36 56 59 89 109 130 160 232 312 366 441 651 750 1014 1454 2114 2609 0
3 8 11 21 25 37 57 60 90 110 131 161 233 313 367 442 652 751 1015 1455 2115 2610 0
1 4 12 22 26 38 43 61 91 111 132 162 234 314 368 443 653 752 1016 1456 2116 2611 0
2 5 13 15 27 39 44 62 92 112 133 163 235 315 369 444 654 753 1017 1457 2117 2612 0
3 6 14 16 28 40 45 63 93 113 134 164 236 316 370 445 655 754 1018 1458 2118 2613 0
1 7 9 17 29 41 46 64 94 114 135 165 237 317 371 446 656 755 1019 1459 2119 2614 0
2 8 10 18 30 42 47 65 95 115 136 166 238 318 372 447 657 756 1020 1460 2120 2615 0
3 4 11 19 31 32 48 66 76 116 137 167 195 319 373 448 658 757 1021 1461 2121 2616 0
1 5 12 20 23 33 49 67 77 117 138 168 196 320 374 449 659 758 1022 1462 2122 2617 0
2 6 13 21 24 34 50 68 78 118 139 169 197 321 375 450 660 759 1023 1463 2123 2618 0
3 7 14 22 25 35 51 69 79 119 140 170 198 322 376 451 661 760 1024 1464 2124 2619 0
1 8 9 15 26 36 52 70 80 120 141 171 199 323 377 452 662 761 1025 1465 2125 2620 0
2 4 10 16 27 37 53 71 81 121 142 172 200 324 378 453 663 762 1026 1466 2126 2621 0
3 5 11 17 28 38 54 72 82 122 143 173 201 325 379 454 664 763 1027 1467 2127 2622 0
1 6 12 18 29 39 55 73 83 123 144 174 202 326 380 455 665 764 1028 1468 2128 2623 0
2 7 13 19 30 40 56 74 84 124 145 175 203 327 381 456 666 765 1029 1469 2129 2624 0
3 8 14 20 31 41 57 75 85 125 146 176 204 328 382 457 667 766 1030 1470 2130 2625 0
1 4 9 21 23 42 43 58 86 96 147 177 205 239 383 458 668 767 1031 1471 2131 2626 0
2 5 10 22 24 32 44 59 87 97 148 178 206 240 384 459 669 768 1032 1472 2132 2627 0
3 6 11 15 25 33 45 60 88 98 149 179 207 241 385 460 670 769 1033 1473 2133 2628 0
1 7 12 16 26 34 46 61 89 99 150 180 208 242 386 461 671 770 1034 1474 2134 2629 0
2 8 13 17 27 35 47 62 90 100 151 181 209 243 387 462 672 771 1035 1475 2135 2630 0
3 4 14 18 28 36 48 63 91 101 152 182 210 244 388 463 673 772 1036 1476 2136 2631 0
1 5 9 19 29 37 49 64 92 102 153 183 211 245 389 464 674 773 1037 1477 2137 2632 0
2 6 10 20 30 38 50 65 93 103 154 184 212 246 390 465 675 774 1038 1478 2138 2633 0
3 7 11 21 31 39 51 66 94 104 155 185 213 247 391 466 676 775 1039 1479 2139 2634 0
1 8 12 22 23 40 52 67 95 105 156 186 214 248 392 467 677 776 1040 1480 2140 2635 0
2 4 13 15 24 41 53 68 76 106 157 187 215 249 393 468 678 777 1041 1481 2141 2636 0
3 5 14 16 25 42 54 69 77 107 158 188 216 250 394 469 679 778 1042 1482 2142 2637 0
1 6 9 17 26 32 55 70 78 108 126 189 217 251 395 470 680 779 1043 1483 2143 2638 0
2 7 10 18 27 33 56 71 79 109 127 190 218 252 396 471 681 780 1044 1484 2144 2639 0
3 8 11 19 28 34 57 72 80 110 128 191 219 253 397 472 682 781 1045 1485 2145 2640 0
1 4 12 20 29 35 43 73 81 111 129 192 220 254 398 473 683 782 1046 1486 2146 2641 0
2 5 13 21 30 36 44 74 82 112 130 193 221 255 399 474 684 783 1047 1487 2147 2642 0
3 6 14 22 31 37 45 75 83 113 131 194 222 256 400 475 685 784 1048 1488 2148 2643 0
1 7 9 15 23 38 46 58 84 114 132 159 223 257 401 476 686 785 1049 1489 2149 2644 0
2 8 10 16 24 39 47 59 85 115 133 160 224 258 402 477 687 786 1050 1490 2150 2645 0
3 4 11 17 25 40 48 60 86 116 134 161 225 259 403 478 688 787 1051 1491 2151 2646 0
1 5 12 18 26 41 49 61 87 117 135 162 226 260 404 479 689 788 1052 1492 2152 2647 0
2 6 13 19 27 42 50 62 88 118 136 163 227 261 405 480 690 789 1053 1493 2153 2648 0
3 7 14 20 28 32 51 63 89 119 137 164 228 262 406 481 691 790 1054 1494 2154 2649 0
1 8 9 21 29 33 52 64 90 120 138 165 229 263 407 482 692 791 1055 1495 2155 2650 0
2 4 10 22 30 34 53 65 91 121 139 166 230 264 408 483 693 792 1056 1496 2156 2651 0
3 5 11 15 31 35 54 66 92 122 140 167 231 265 409 484 694 793 1057 1497 2157 2652 0
1 6 12 16 23 36 55 67 93 123 141 168 232 266 410 485 695 794 1058 1498 2158 2653 0
2 7 13 17 24 37 56 68 94 124 142 169 233 267 411 486 696 795 1059 1499 2159 2654 0
3 8 14 18 25 38 57 69 95 125 143 170 234 268 412 487 697 796 1060 1500 2160 2655 0
1 4 9 19 26 39 43 70 76 96 144 171 235 269 413 488 698 797 1061 1501 2161 2656 0
2 5 10 20 27 40 44 71 77 97 145 172 236 270 414 489 699 798 1062 1502 2162 2657 0
3 6 11 21 28 41 45 72 78 98 146 173 237 271 415 490 700 799 1063 1503 2163 2658 0
1 7 12 22 29 42 46 73 79 99 147 174 238 272 416 491 701 800 1064 1504 2164 2659 0
2 8 13 15 30 32 47 74 80 100 148 175 195 273 417 492 702 801 1065 1505 2165 2660 0
3 4 14 16 31 33 48 75 81 101 149 176 196 274 418 493 703 802 1066 1506 2166 2661 0
1 5 9 17 23 34 49 58 82 102 150 177 197 275 419 494 704 803 1067 1507 2167 2662 0
2 6 10 18 24 35 50 59 83 103 151 178 198 276 420 495 705 804 1068 1508 2168 2663 0
3 7 11 19 25 36 51 60 84 104 152 179 199 277 421 496 706 805 1069 1509 2169 2664 0
1 8 12 20 26 37 52 61 85 105 153 180 200 278 422 497 707 806 1070 1510 2170 2665 0
2 4 13 21 27 38 53 62 86 106 154 181 201 279 423 498 708 807 1071 1511 2171 2666 0
3 5 14 22 28 39 54 63 87 107 155 182 202 280 424 499 709 808 1072 1512 2172 2667 0
1 6 9 15 29 40 55 64 88 108 156 183 203 281 425 500 710 809 1073 1513 2173 2668 0
2 7 10 16 30 41 56 65 89 109 157 184 204 282 426 501 711 810 1074 1514 2174 2669 0
3 8 11 17 31 42 57 66 90 110 158 185 205 283 427 502 712 811 1075 1515 2175 2670 0
1 4 12 18 23 32 43 67 91 111 126 186 206 284 329 503 548 812 1076 1516 1681 2671 0
2 5 13 19 24 33 44 68 92 112 127 187 207 285 330 504 549 813 1077 1517 1682 2672 0
3 6 14 20 25 34 45 69 93 113 128 188 208 286 331 505 550 814 1078 1518 1683 2673 0
1 7 9 21 26 35 46 70 94 114 129 189 209 287 332 506 551 815 1079 1519 1684 2674 0
2 8 10 22 27 36 47 71 95 115 130 190 210 288 333 507 552 816 1080 1520 1685 2675 0
3 4 11 15 28 37 48 72 76 116 131 191 211 289 334 508 553 817 1081 1521 1686 2676 0
1 5 12 16 29 38 49 73 77 117 132 192 212 290 335 509 554 818 1082 1522 1687 2677 0
2 6 13 17 30 39 50 74 78 118 133 193 213 291 336 510 555 819 1083 1523 1688 2678 0
3 7 14 18 31 40 51 75 79 119 134 194 214 292 337 511 556 820 1084 1524 1689 2679 0
1 8 9 19 23 41 52 58 80 120 135 159 215 293 338 512 557 821 1085 1525 1690 2680 0
2 4 10 20 24 42 53 59 81 121 136 160 216 294 339 513 558 822 1086 1526 1691 2681 0
3 5 11 21 25 32 54 60 82 122 137 161 217 295 340 514 559 823 1087 1527 1692 2682 0
1 6 12 22 26 33 55 61 83 123 138 162 218 296 341 515 560 824 1088 1528 1693 2683 0
2 7 13 15 27 34 56 62 84 124 139 163 219 297 342 516 561 825 1089 1529 1694 2684 0
3 8 14 16 28 35 57 63 85 125 140 164 220 298 343 517 562 826 1090 1530 1695 2685 0
1 4 9 17 29 36 43 64 86 96 141 165 221 299 344 518 563 827 1091 1531 1696 2686 0
2 5 10 18 30 37 44 65 87 97 142 166 222 300 345 519 564 828 1092 1532 1697 2687 0
3 6 11 19 31 38 45 66 88 98 143 167 223 301 346 520 565 829 1093 1533 1698 2688 0
1 7 12 20 23 39 46 67 89 99 144 168 224 302 347 521 566 830 1094 1534 1699 2689 0
2 8 13 21 24 40 47 68 90 100 145 169 225 303 348 522 567 831 1095 1535 1700 2690 0
3 4 14 22 25 41 48 69 91 101 146 170 226 304 349 523 568 832 1096 1536 1701 2691 0
1 5 9 15 26 42 49 70 92 102 147 171 227 305 350 524 569 833 1097 1537 1702 2692 0
2 6 10 16 27 32 50 71 93 103 148 172 228 306 351 525 570 834 1098 1538 1703 2693 0
3 7 11 17 28 33 51 72 94 104 149 173 229 307 352 526 571 835 1099 1539 1704 2694 0
1 8 12 18 29 34 52 73 95 105 150 174 230 308 353 527 572 836 1100 1540 1705 2695 0
2 4 13 19 30 35 53 74 76 106 151 175 231 309 354 528 573 837 1101 1541 1706 2696 0
3 5 14 20 31 36 54 75 77 107 152 176 232 310 355 529 574 838 1102 1542 1707 2697 0
1 6 9 21 23 37 55 58 78 108 153 177 233 311 356 530 575 839 1103 1543 1708 2698 0
2 7 10 22 24 38 56 59 79 109 154 178 234 312 357 531 576 840 1104 1544 1709 2699 0
3 8 11 15 25 39 57 60 80 110 155 179 235 313 358 532 577 841 1105 1545 1710 2700 0
1 4 12 16 26 40 43 61 81 111 156 180 236 314 359 533 578 842 1106 1546 1711 2701 0
2 5 13 17 27 41 44 62 82 112 157 181 237 315 360 534 579 843 1107 1547 1712 2702 0
3 6 14 18 28 42 45 63 83 113 158 182 238 316 361 535 580 844 1108 1548 1713 2703 0
1 7 9 19 29 32 46 64 84 114 126 183 195 317 362 536 581 845 1109 1549 1714 2704 0
2 8 10 20 30 33 47 65 85 115 127 184 196 318 363 537 582 846 1110 1550 1715 2705 0
3 4 11 21 31 34 48 66 86 116 128 185 197 319 364 538 583 847 1111 1551 1716 2706 0
1 5 12 22 23 35 49 67 87 117 129 186 198 320 365 539 584 848 1112 1552 1717 2707 0
2 6 13 15 24 36 50 68 88 118 130 187 199 321 366 540 585 849 1113 1553 1718 2708 0
3 7 14 16 25 37 51 69 89 119 131 188 200 322 367 541 586 850 1114 1554 1719 2709 0
1 8 9 17 26 38 52 70 90 120 132 189 201 323 368 542 587 851 1115 1555 1720 2710 0
2 4 10 18 27 39 53 71 91 121 133 190 202 324 369 543 588 852 1116 1556 1721 2711 0
3 5 11 19 28 40 54 72 92 122 134 191 203 325 370 544 589 853 1117 1557 1722 2712 0
1 6 12 20 29 41 55 73 93 123 135 192 204 326 371 545 590 854 1118 1558 1723 2713 0
2 7 13 21 30 42 56 74 94 124 136 193 205 327 372 546 591 855 1119 1559 1724 2714 0
3 8 14 22 31 32 57 75 95 125 137 194 206 328 373 547 592 856 1120 1560 1725 2715 0
1 4 9 15 23 33 43 58 76 96 138 159 207 239 374 428 593 857 1121 1561 1726 2716 0
2 5 10 16 24 34 44 59 77 97 139 160 208 240 375 429 594 858 1122 1562 1727 2717 0
3 6 11 17 25 35 45 60 78 98 140 161 209 241 376 430 595 859 1123 1563 1728 2718 0
1 7 12 18 26 36 46 61 79 99 141 162 210 242 377 431 596 860 1124 1564 1729 2719 0
2 8 13 19 27 37 47 62 80 100 142 163 211 243 378 432 597 861 1125 1565 1730 2720 0
3 4 14 20 28 38 48 63 81 101 143 164 212 244 379 433 598 862 1126 1566 1731 2721 0
1 5 9 21 29 39 49 64 82 102 144 165 213 245 380 434 599 863 1127 1567 1732 2722 0
2 6 10 22 30 40 50 65 83 103 145 166 214 246 381 435 600 864 1128 1568 1733 2723 0
3 7 11 15 31 41 51 66 84 104 146 167 215 247 382 436 601 865 1129 1569 1734 2724 0
1 8 12 16 23 42 52 67 85 105 147 168 216 248 383 437 602 866 1130 1570 1735 2725 0
2 4 13 17 24 32 53 68 86 106 148 169 217 249 384 438 603 867 1131 1571 1736 2726 0
3 5 14 18 25 33 54 69 87 107 149 170 218 250 385 439 604 868 1132 1572 1737 2727 0
1 6 9 19 26 34 55 70 88 108 150 171 219 251 386 440 605 869 1133 1573 1738 2728 0
2 7 10 20 27 35 56 71 89 109 151 172 220 252 387 441 606 870 1134 1574 1739 2729 0
3 8 11 21 28 36 57 72 90 110 152 173 221 253 388 442 607 871 1135 1575 1740 2730 0
1 4 12 22 29 37 43 73 91 111 153 174 222 254 389 443 608 872 1136 1576 1741 2731 0
2 5 13 15 30 38 44 74 92 112 154 175 223 255 390 444 609 873 1137 1577 1742 2732 0
3 6 14 16 31 39 45 75 93 113 155 176 224 256 391 445 610 874 1138 1578 1743 2733 0
1 7 9 17 23 40 46 58 94 114 156 177 225 257 392 446 611 875 1139 1579 1744 2734 0
2 8 10 18 24 41 47 59 95 115 157 178 226 258 393 447 612 876 1140 1580 1745 2735 0
3 4 11 19 25 42 48 60 76 116 158 179 227 259 394 448 613 877 1141 1581 1746 2736 0
1 5 12 20 26 32 49 61 77 117 126 180 228 260 395 449 614 878 1142 1582 1747 2737 0
2 6 13 21 27 33 50 62 78 118 127 181 229 261 396 450 615 879 1143 1583 1748 2738 0
3 7 14 22 28 34 51 63 79 119 128 182 230 262 397 451 616 880 1144 1584 1749 2739 0
1 8 9 15 29 35 52 64 80 120 129 183 231 263 398 452 617 881 1145 1585 1750 2740 0
2 4 10 16 30 36 53 65 81 121 130 184 232 264 399 453 618 882 1146 1586 1751 2741 0
3 5 11 17 31 37 54 66 82 122 131 185 233 265 400 454 619 883 1147 1587 1752 2742 0
1 6 12 18 23 38 55 67 83 123 132 186 234 266 401 455 620 884 1148 1588 1753 2743 0
2 7 13 19 24 39 56 68 84 124 133 187 235 267 402 456 621 885 1149 1589 1754 2744 0
3 8 14 20 25 40 57 69 85 125 134 188 236 268 403 457 622 886 1150 1590 1755 2745 0
1 4 9 21 26 41 43 70 86 96 135 189 237 269 404 458 623 887 1151 1591 1756 2746 0
2 5 10 22 27 42 44 71 87 97 136 190 238 270 405 459 624 888 1152 1592 1757 2747 0
3 6 11 15 28 32 45 72 88 98 137 191 195 271 406 460 625 889 1153 1593 1758 2748 0
1 7 12 16 29 33 46 73 89 99 138 192 196 272 407 461 626 890 1154 1594 1759 2749 0
2 8 13 17 30 34 47 74 90 100 139 193 197 273 408 462 627 891 1155 1595 1760 2750 0
3 4 14 18 31 35 48 75 91 101 140 194 198 274 409 463 628 892 1156 1596 1761 2751 0
1 5 9 19 23 36 49 58 92 102 141 159 199 275 410 464 629 893 1157 1597 1762 2752 0
2 6 10 20 24 37 50 59 93 103 142 160 200 276 411 465 630 894 1158 1598 1763 2753 0
3 7 11 21 25 38 51 60 94 104 143 161 201 277 412 466 631 895 1159 1599 1764 2754 0
1 8 12 22 26 39 52 61 95 105 144 162 202 278 413 467 632 896 1160 1600 1765 2755 0
2 4 13 15 27 40 53 62 76 106 145 163 203 279 414 468 633 897 1161 1601 1766 2756 0
3 5 14 16 28 41 54 63 77 107 146 164 204 280 415 469 634 898 1162 1602 1767 2757 0
1 6 9 17 29 42 55 64 78 108 147 165 205 281 416 470 635 899 1163 1603 1768 2758 0
2 7 10 18 30 32 56 65 79 109 148 166 206 282 417 471 636 900 1164 1604 1769 2759 0
3 8 11 19 31 33 57 66 80 110 149 167 207 283 418 472 637 901 1165 1605 1770 2760 0
1 4 12 20 23 34 43 67 81 111 150 168 208 284 419 473 638 902 1166 1606 1771 2761 0
2 5 13 21 24 35 44 68 82 112 151 169 209 285 420 474 639 903 1167 1607 1772 2762 0
3 6 14 22 25 36 45 69 83 113 152 170 210 286 421 475 640 904 1168 1608 1773 2763 0
1 7 9 15 26 37 46 70 84 114 153 171 211 287 422 476 641 905 1169 1609 1774 2764 0
2 8 10 16 27 38 47 71 85 115 154 172 212 288 423 477 642 906 1170 1610 1775 2765 0
3 4 11 17 28 39 48 72 86 116 155 173 213 289 424 478 643 907 1171 1611 1776 2766 0
1 5 12 18 29 40 49 73 87 117 156 174 214 290 425 479 644 908 1172 1612 1777 2767 0
2 6 13 19 30 41 50 74 88 118 157 175 215 291 426 480 645 909 1173 1613 1778 2768 0
3 7 14 20 31 42 51 75 89 119 158 176 216 292 427 481 646 910 1174 1614 1779 2769 0
1 8 9 21 23 32 52 58 90 120 126 177 217 293 329 482 647 713 1175 1615 1780 2770 0
2 4 10 22 24 33 53 59 91 121 127 178 218 294 330 483 648 714 1176 1616 1781 2771 0
3 5 11 15 25 34 54 60 92 122 128 179 219 295 331 484 649 715 1177 1617 1782 2772 0
1 6 12 16 26 35 55 61 93 123 129 180 220 296 332 485 650 716 1178 1618 1783 2773 0
2 7 13 17 27 36 56 62 94 124 130 181 221 297 333 486 651 717 1179 1619 1784 2774 0
3 8 14 18 28 37 57 63 95 125 131 182 222 298 334 487 652 718 1180 1620 1785 2775 0
1 4 9 19 29 38 43 64 76 96 132 183 223 299 335 488 653 719 1181 1621 1786 2776 0
2 5 10 20 30 39 44 65 77 97 133 184 224 300 336 489 654 720 1182 1622 1787 2777 0
3 6 11 21 31 40 45 66 78 98 134 185 225 301 337 490 655 721 1183 1623 1788 2778 0
1 7 12 22 23 41 46 67 79 99 135 186 226 302 338 491 656 722 1184 1624 1789 2779 0
2 8 13 15 24 42 47 68 80 100 136 187 227 303 339 492 657 723 1185 1625 1790 2780 0
3 4 14 16 25 32 48 69 81 101 137 188 228 304 340 493 658 724 1186 1626 1791 2781 0
1 5 9 17 26 33 49 70 82 102 138 189 229 305 341 494 659 725 1187 1627 1792 2782 0
2 6 10 18 27 34 50 71 83 103 139 190 230 306 342 495 660 726 1188 1628 1793 2783 0
3 7 11 19 28 35 51 72 84 104 140 191 231 307 343 496 661 727 1189 1629 1794 2784 0
1 8 12 20 29 36 52 73 85 105 141 192 232 308 344 497 662 728 1190 1630 1795 2785 0
2 4 13 21 30 37 53 74 86 106 142 193 233 309 345 498 663 729 1191 1631 1796 2786 0
3 5 14 22 31 38 54 75 87 107 143 194 234 310 346 499 664 730 1192 1632 1797 2787 0
1 6 9 15 23 39 55 58 88 108 144 159 235 311 347 500 665 731 1193 1633 1798 2788 0
2 7 10 16 24 40 56 59 89 109 145 160 236 312 348 501 666 732 1194 1634 1799 2789 0
3 8 11 17 25 41 57 60 90 110 146 161 237 313 349 502 667 733 1195 1635 1800 2790 0
1 4 12 18 26 42 43 61 91 111 147 162 238 314 350 503 668 734 1196 1636 1801 2791 0
2 5 13 19 27 32 44 62 92 112 148 163 195 315 351 504 669 735 1197 1637 1802 2792 0
3 6 14 20 28 33 45 63 93 113 149 164 196 316 352 505 670 736 1198 1638 1803 2793 0
1 7 9 21 29 34 46 64 94 114 150 165 197 317 353 506 671 737 1199 1639 1804 2794 0
2 8 10 22 30 35 47 65 95 115 151 166 198 318 354 507 672 738 1200 1640 1805 2795 0
3 4 11 15 31 36 48 66 76 116 152 167 199 319 355 508 673 739 1201 1641 1806 2796 0
1 5 12 16 23 37 49 67 77 117 153 168 200 320 356 509 674 740 1202 1642 1807 2797 0
2 6 13 17 24 38 50 68 78 118 154 169 201 321 357 510 675 741 1203 1643 1808 2798 0
3 7 14 18 25 39 51 69 79 119 155 170 202 322 358 511 676 742 1204 1644 1809 2799 0
1 8 9 19 26 40 52 70 80 120 156 171 203 323 359 512 677 743 1205 1645 1810 2800 0
2 4 10 20 27 41 53 71 81 121 157 172 204 324 360 513 678 744 1206 1646 1811 2801 0
3 5 11 21 28 42 54 72 82 122 158 173 205 325 361 514 679 745 1207 1647 1812 2802 0
1 6 12 22 29 32 55 73 83 123 126 174 206 326 362 515 680 746 1208 1648 1813 2803 0
2 7 13 15 30 33 56 74 84 124 127 175 207 327 363 516 681 747 1209 1649 1814 2804 0
3 8 14 16 31 34 57 75 85 125 128 176 208 328 364 517 682 748 1210 1650 1815 2805 0
1 4 9 17 23 35 43 58 86 96 129 177 209 239 365 518 683 749 1211 1651 1816 2806 0
2 5 10 18 24 36 44 59 87 97 130 178 210 240 366 519 684 750 1212 1652 1817 2807 0
3 6 11 19 25 37 45 60 88 98 131 179 211 241 367 520 685 751 1213 1653 1818 2808 0
1 7 12 20 26 38 46 61 89 99 132 180 212 242 368 521 686 752 1214 1654 1819 2809 0
2 8 13 21 27 39 47 62 90 100 133 181 213 243 369 522 687 753 1215 1655 1820 2810 0
3 4 14 22 28 40 48 63 91 101 134 182 214 244 370 523 688 754 1216 1656 1821 2811 0
1 5 9 15 29 41 49 64 92 102 135 183 215 245 371 524 689 755 1217 1657 1822 2812 0
2 6 10 16 30 42 50 65 93 103 136 184 216 246 372 525 690 756 1218 1658 1823 2813 0
3 7 11 17 31 32 51 66 94 104 137 185 217 247 373 526 691 757 1219 1659 1824 2814 0
1 8 12 18 23 33 52 67 95 105 138 186 218 248 374 527 692 758 1220 1660 1825 2815 0
2 4 13 19 24 34 53 68 76 106 139 187 219 249 375 528 693 759 1221 1661 1826 2816 0
3 5 14 20 25 35 54 69 77 107 140 188 220 250 376 529 694 760 1222 1662 1827 2817 0
1 6 9 21 26 36 55 70 78 108 141 189 221 251 377 530 695 761 1223 1663 1828 2818 0
2 7 10 22 27 37 56 71 79 109 142 190 222 252 378 531 696 762 1224 1664 1829 2819 0
3 8 11 15 28 38 57 72 80 110 143 191 223 253 379 532 697 763 1225 1665 1830 2820 0
1 4 12 16 29 39 43 73 81 111 144 192 224 254 380 533 698 764 1226 1666 1831 2821 0
2 5 13 17 30 40 44 74 82 112 145 193 225 255 381 534 699 765 1227 1667 1832 2822 0
3 6 14 18 31 41 45 75 83 113 146 194 226 256 382 535 700 766 1228 1668 1833 2823 0
1 7 9 19 23 42 46 58 84 114 147 159 227 257 383 536 701 767 1229 1669 1834 2824 0
2 8 10 20 24 32 47 59 85 115 148 160 228 258 384 537 702 768 1230 1670 1835 2825 0
3 4 11 21 25 33 48 60 86 116 149 161 229 259 385 538 703 769 1231 1671 1836 2826 0
1 5 12 22 26 34 49 61 87 117 150 162 230 260 386 539 704 770 1232 1672 1837 2827 0
2 6 13 15 27 35 50 62 88 118 151 163 231 261 387 540 705 771 1233 1673 1838 2828 0
3 7 14 16 28 36 51 63 89 119 152 164 232 262 388 541 706 772 1234 1674 1839 2829 0
1 8 9 17 29 37 52 64 90 120 153 165 233 263 389 542 707 773 1235 1675 1840 2830 0
2 4 10 18 30 38 53 65 91 121 154 166 234 264 390 543 708 774 1236 1676 1841 2831 0
3 5 11 19 31 39 54 66 92 122 155 167 235 265 391 544 709 775 1237 1677 1842 2832 0
1 6 12 20 23 40 55 67 93 123 156 168 236 266 392 545 710 776 1238 1678 1843 2833 0
2 7 13 21 24 41 56 68 94 124 157 169 237 267 393 546 711 777 1239 1679 1844 2834 0
3 8 14 22 25 42 57 69 95 125 158 170 238 268 394 547 712 778 1240 1680 1845 2835 0
1 4 9 15 26 32 43 70 76 96 126 171 195 269 395 428 548 779 911 1241 1846 2176 0
2 5 10 16 27 33 44 71 77 97 127 172 196 270 396 429 549 780 912 1242 1847 2177 0
3 6 11 17 28 34 45 72 78 98 128 173 197 271 397 430 550 781 913 1243 1848 2178 0
1 7 12 18 29 35 46 73 79 99 129 174 198 272 398 431 551 782 914 1244 1849 2179 0
2 8 13 19 30 36 47 74 80 100 130 175 199 273 399 432 552 783 915 1245 1850 2180 0
3 4 14 20 31 37 48 75 81 101 131 176 200 274 400 433 553 784 916 1246 1851 2181 0
1 5 9 21 23 38 49 58 82 102 132 177 201 275 401 434 554 785 917 1247 1852 2182 0
2 6 10 22 24 39 50 59 83 103 133 178 202 276 402 435 555 786 918 1248 1853 2183 0
3 7 11 15 25 40 51 60 84 104 134 179 203 277 403 436 556 787 919 1249 1854 2184 0
1 8 12 16 26 41 52 61 85 105 135 180 204 278 404 437 557 788 920 1250 1855 2185 0
2 4 13 17 27 42 53 62 86 106 136 181 205 279 405 438 558 789 921 1251 1856 2186 0
3 5 14 18 28 32 54 63 87 107 137 182 206 280 406 439 559 790 922 1252 1857 2187 0
1 6 9 19 29 33 55 64 88 108 138 183 207 281 407 440 560 791 923 1253 1858 2188 0
2 7 10 20 30 34 56 65 89 109 139 184 208 282 408 441 561 792 924 1254 1859 2189 0
3 8 11 21 31 35 57 66 90 110 140 185 209 283 409 442 562 793 925 1255 1860 2190 0
1 4 12 22 23 36 43 67 91 111 141 186 210 284 410 443 563 794 926 1256 1861 2191 0
2 5 13 15 24 37 44 68 92 112 142 187 211 285 411 444 564 795 927 1257 1862 2192 0
3 6 14 16 25 38 45 69 93 113 143 188 212 286 412 445 565 796 928 1258 1863 2193 0
1 7 9 17 26 39 46 70 94 114 144 189 213 287 413 446 566 797 929 1259 1864 2194 0
2 8 10 18 27 40 47 71 95 115 145 190 214 288 414 447 567 798 930 1260 1865 2195 0
3 4 11 19 28 41 48 72 76 116 146 191 215 289 415 448 568 799 931 1261 1866 2196 0
1 5 12 20 29 42 49 73 77 117 147 192 216 290 416 449 569 800 932 1262 1867 2197 0
2 6 13 21 30 32 50 74 78 118 148 193 217 291 417 450 570 801 933 1263 1868 2198 0
3 7 14 22 31 33 51 75 79 119 149 194 218 292 418 451 571 802 934 1264 1869 2199 0
1 8 9 15 23 34 52 58 80 120 150 159 219 293 419 452 572 803 935 1265 1870 2200 0
2 4 10 16 24 35 53 59 81 121 151 160 220 294 420 453 573 804 936 1266 1871 2201 0
3 5 11 17 25 36 54 60 82 122 152 161 221 295 421 454 574 805 937 1267 1872 2202 0
1 6 12 18 26 37 55 61 83 123 153 162 222 296 422 455 575 806 938 1268 1873 2203 0
2 7 13 19 27 38 56 62 84 124 154 163 223 297 423 456 576 807 939 1269 1874 2204 0
3 8 14 20 28 39 57 63 85 125 155 164 224 298 424 457 577 808 940 1270 1875 2205 0
1 4 9 21 29 40 43 64 86 96 156 165 225 299 425 458 578 809 941 1271 1876 2206 0
2 5 10 22 30 41 44 65 87 97 157 166 226 300 426 459 579 810 942 1272 1877 2207 0
3 6 11 15 31 42 45 66 88 98 158 167 227 301 427 460 580 811 943 1273 1878 2208 0
1 7 12 16 23 32 46 67 89 99 126 168 228 302 329 461 581 812 944 1274 1879 2209 0
2 8 13 17 24 33 47 68 90 100 127 169 229 303 330 462 582 813 945 1275 1880 2210 0
3 4 14 18 25 34 48 69 91 101 128 170 230 304 331 463 583 814 946 1276 1881 2211 0
1 5 9 19 26 35 49 70 92 102 129 171 231 305 332 464 584 815 947 1277 1882 2212 0
2 6 10 20 27 36 50 71 93 103 130 172 232 306 333 465 585 816 948 1278 1883 2213 0
3 7 11 21 28 37 51 72 94 104 131 173 233 307 334 466 586 817 949 1279 1884 2214 0
1 8 12 22 29 38 52 73 95 105 132 174 234 308 335 467 587 818 950 1280 1885 2215 0
2 4 13 15 30 39 53 74 76 106 133 175 235 309 336 468 588 819 951 1281 1886 2216 0
3 5 14 16 31 40 54 75 77 107 134 176 236 310 337 469 589 820 952 1282 1887 2217 0
1 6 9 17 23 41 55 58 78 108 135 177 237 311 338 470 590 821 953 1283 1888 2218 0
2 7 10 18 24 42 56 59 79 109 136 178 238 312 339 471 591 822 954 1284 1889 2219 0
3 8 11 19 25 32 57 60 80 110 137 179 195 313 340 472 592 823 955 1285 1890 2220 0
1 4 12 20 26 33 43 61 81 111 138 180 196 314 341 473 593 824 956 1286 1891 2221 0
2 5 13 21 27 34 44 62 82 112 139 181 197 315 342 474 594 825 957 1287 1892 2222 0
3 6 14 22 28 35 45 63 83 113 140 182 198 316 343 475 595 826 958 1288 1893 2223 0
1 7 9 15 29 36 46 64 84 114 141 183 199 317 344 476 596 827 959 1289 1894 2224 0
2 8 10 16 30 37 47 65 85 115 142 184 200 318 345 477 597 828 960 1290 1895 2225 0
3 4 11 17 31 38 48 66 86 116 143 185 201 319 346 478 598 829 961 1291 1896 2226 0
1 5 12 18 23 39 49 67 87 117 144 186 202 320 347 479 599 830 962 1292 1897 2227 0
2 6 13 19 24 40 50 68 88 118 145 187 203 321 348 480 600 831 963 1293 1898 2228 0
3 7 14 20 25 41 51 69 89 119 146 188 204 322 349 481 601 832 964 1294 1899 2229 0
1 8 9 21 26 42 52 70 90 120 147 189 205 323 350 482 602 833 965 1295 1900 2230 0
2 4 10 22 27 32 53 71 91 121 148 190 206 324 351 483 603 834 966 1296 1901 2231 0
3 5 11 15 28 33 54 72 92 122 149 191 207 325 352 484 604 835 967 1297 1902 2232 0
1 6 12 16 29 34 55 73 93 123 150 192 208 326 353 485 605 836 968 1298 1903 2233 0
2 7 13 17 30 35 56 74 94 124 151 193 209 327 354 486 606 837 969 1299 1904 2234 0
3 8 14 18 31 36 57 75 95 125 152 194 210 328 355 487 607 838 970 1300 1905 2235 0
1 4 9 19 23 37 43 58 76 96 153 159 211 239 356 488 608 839 971 1301 1906 2236 0
2 5 10 20 24 38 44 59 77 97 154 160 212 240 357 489 609 840 972 1302 1907 2237 0
3 6 11 21 25 39 45 60 78 98 155 161 213 241 358 490 610 841 973 1303 1908 2238 0
1 7 12 22 26 40 46 61 79 99 156 162 214 242 359 491 611 842 974 1304 1909 2239 0
2 8 13 15 27 41 47 62 80 100 157 163 215 243 360 492 612 843 975 1305 1910 2240 0
3 4 14 16 28 42 48 63 81 101 158 164 216 244 361 493 613 844 976 1306 1911 2241 0
1 5 9 17 29 32 49 64 82 102 126 165 217 245 362 494 614 845 977 1307 1912 2242 0
2 6 10 18 30 33 50 65 83 103 127 166 218 246 363 495 615 846 978 1308 1913 2243 0
3 7 11 19 31 34 51 66 84 104 128 167 219 247 364 496 616 847 979 1309 1914 2244 0
1 8 12 20 23 35 52 67 85 105 129 168 220 248 365 497 617 848 980 1310 1915 2245 0
2 4 13 21 24 36 53 68 86 106 130 169 221 249 366 498 618 849 981 1311 1916 2246 0
3 5 14 22 25 37 54 69 87 107 131 170 222 250 367 499 619 850 982 1312 1917 2247 0
1 6 9 15 26 38 55 70 88 108 132 171 223 251 368 500 620 851 983 1313 1918 2248 0
2 7 10 16 27 39 56 71 89 109 133 172 224 252 369 501 621 852 984 1314 1919 2249 0
3 8 11 17 28 40 57 72 90 110 134 173 225 253 370 502 622 853 985 1315 1920 2250 0
1 4 12 18 29 41 43 73 91 111 135 174 226 254 371 503 623 854 986 1316 1921 2251 0
2 5 13 19 30 42 44 74 92 112 136 175 227 255 372 504 624 855 987 1317 1922 2252 0
3 6 14 20 31 32 45 75 93 113 137 176 228 256 373 505 625 856 988 1318 1923 2253 0
1 7 9 21 23 33 46 58 94 114 138 177 229 257 374 506 626 857 989 1319 1924 2254 0
2 8 10 22 24 34 47 59 95 115 139 178 230 258 375 507 627 858 990 1320 1925 2255 0
3 4 11 15 25 35 48 60 76 116 140 179 231 259 376 508 628 859 991 1321 1926 2256 0
1 5 12 16 26 36 49 61 77 117 141 180 232 260 377 509 629 860 992 1322 1927 2257 0
2 6 13 17 27 37 50 62 78 118 142 181 233 261 378 510 630 861 993 1323 1928 2258 0
3 7 14 18 28 38 51 63 79 119 143 182 234 262 379 511 631 862 994 1324 1929 2259 0
1 8 9 19 29 39 52 64 80 120 144 183 235 263 380 512 632 863 995 1325 1930 2260 0
2 4 10 20 30 40 53 65 81 121 145 184 236 264 381 513 633 864 996 1326 1931 2261 0
3 5 11 21 31 41 54 66 82 122 146 185 237 265 382 514 634 865 997 1327 1932 2262 0
1 6 12 22 23 42 55 67 83 123 147 186 238 266 383 515 635 866 998 1328 1933 2263 0
2 7 13 15 24 32 56 68 84 124 148 187 195 267 384 516 636 867 999 1329 1934 2264 0
3 8 14 16 25 33 57 69 85 125 149 188 196 268 385 517 637 868 1000 1330 1935 2265 0
1 4 9 17 26 34 43 70 86 96 150 189 197 269 386 518 638 869 1001 1331 1936 2266 0
2 5 10 18 27 35 44 71 87 97 151 190 198 270 387 519 639 870 1002 1332 1937 2267 0
3 6 11 19 28 36 45 72 88 98 152 191 199 271 388 520 640 871 1003 1333 1938 2268 0
1 7 12 20 29 37 46 73 89 99 153 192 200 272 389 521 641 872 1004 1334 1939 2269 0
2 8 13 21 30 38 47 74 90 100 154 193 201 273 390 522 642 873 1005 1335 1940 2270 0
3 4 14 22 31 39 48 75 91 101 155 194 202 274 391 523 643 874 1006 1336 1941 2271 0
1 5 9 15 23 40 49 58 92 102 156 159 203 275 392 524 644 875 1007 1337 1942 2272 0
2 6 10 16 24 41 50 59 93 103 157 160 204 276 393 525 645 876 1008 1338 1943 2273 0
3 7 11 17 25 42 51 60 94 104 158 161 205 277 394 526 646 877 1009 1339 1944 2274 0
1 8 12 18 26 32 52 61 95 105 126 162 206 278 395 527 647 878 1010 1340 1945 2275 0
2 4 13 19 27 33 53 62 76 106 127 163 207 279 396 528 648 879 1011 1341 1946 2276 0
3 5 14 20 28 34 54 63 77 107 128 164 208 280 397 529 649 880 1012 1342 1947 2277 0
1 6 9 21 29 35 55 64 78 108 129 165 209 281 398 530 650 881 1013 1343 1948 2278 0
2 7 10 22 30 36 56 65 79 109 130 166 210 282 399 531 651 882 1014 1344 1949 2279 0
3 8 11 15 31 37 57 66 80 110 131 167 211 283 400 532 652 883 1015 1345 1950 2280 0
1 4 12 16 23 38 43 67 81 111 132 168 212 284 401 533 653 884 1016 1346 1951 2281 0
2 5 13 17 24 39 44 68 82 112 133 169 213 285 402 534 654 885 1017 1347 1952 2282 0
3 6 14 18 25 40 45 69 83 113 134 170 214 286 403 535 655 886 1018 1348 1953 2283 0
1 7 9 19 26 41 46 70 84 114 135 171 215 287 404 536 656 887 1019 1349 1954 2284 0
2 8 10 20 27 42 47 71 85 115 136 172 216 288 405 537 657 888 1020 1350 1955 2285 0
3 4 11 21 28 32 48 72 86 116 137 173 217 289 406 538 658 889 1021 1351 1956 2286 0
1 5 12 22 29 33 49 73 87 117 138 174 218 290 407 539 659 890 1022 1352 1957 2287 0
2 6 13 15 30 34 50 74 88 118 139 175 219 291 408 540 660 891 1023 1353 1958 2288 0
3 7 14 16 31 35 51 75 89 119 140 176 220 292 409 541 661 892 1024 1354 1959 2289 0
1 8 9 17 23 36 52 58 90 120 141 177 221 293 410 542 662 893 1025 1355 1960 2290 0
2 4 10 18 24 37 53 59 91 121 142 178 222 294 411 543 663 894 1026 1356 1961 2291 0
3 5 11 19 25 38 54 60 92 122 143 179 223 295 412 544 664 895 1027 1357 1962 2292 0
1 6 12 20 26 39 55 61 93 123 144 180 224 296 413 545 665 896 1028 1358 1963 2293 0
2 7 13 21 27 40 56 62 94 124 145 181 225 297 414 546 666 897 1029 1359 1964 2294 0
3 8 14 22 28 41 57 63 95 125 146 182 226 298 415 547 667 898 1030 1360 1965 2295 0
1 4 9 15 29 42 43 64 76 96 147 183 227 299 416 428 668 899 1031 1361 1966 2296 0
2 5 10 16 30 32 44 65 77 97 148 184 228 300 417 429 669 900 1032 1362 1967 2297 0
3 6 11 17 31 33 45 66 78 98 149 185 229 301 418 430 670 901 1033 1363 1968 2298 0
1 7 12 18 23 34 46 67 79 99 150 186 230 302 419 431 671 902 1034 1364 1969 2299 0
2 8 13 19 24 35 47 68 80 100 151 187 231 303 420 432 672 903 1035 1365 1970 2300 0
3 4 14 20 25 36 48 69 81 101 152 188 232 304 421 433 673 904 1036 1366 1971 2301 0
1 5 9 21 26 37 49 70 82 102 153 189 233 305 422 434 674 905 1037 1367 1972 2302 0
2 6 10 22 27 38 50 71 83 103 154 190 234 306 423 435 675 906 1038 1368 1973 2303 0
3 7 11 15 28 39 51 72 84 104 155 191 235 307 424 436 676 907 1039 1369 1974 2304 0
1 8 12 16 29 40 52 73 85 105 156 192 236 308 425 437 677 908 1040 1370 1975 2305 0
2 4 13 17 30 41 53 74 86 106 157 193 237 309 426 438 678 909 1041 1371 1976 2306 0
3 5 14 18 31 42 54 75 87 107 158 194 238 310 427 439 679 910 1042 1372 1977 2307 0
1 6 9 19 23 32 55 58 88 108 126 159 195 311 329 440 680 713 1043 1373 1978 2308 0
2 7 10 20 24 33 56 59 89 109 127 160 196 312 330 441 681 714 1044 1374 1979 2309 0
3 8 11 21 25 34 57 60 90 110 128 161 197 313 331 442 682 715 1045 1375 1980 2310 0
1 4 12 22 26 35 43 61 91 111 129 162 198 314 332 443 683 716 1046 1376 1981 2311 0
2 5 13 15 27 36 44 62 92 112 130 163 199 315 333 444 684 717 1047 1377 1982 2312 0
3 6 14 16 28 37 45 63 93 113 131 164 200 316 334 445 685 718 1048 1378 1983 2313 0
1 7 9 17 29 38 46 64 94 114 132 165 201 317 335 446 686 719 1049 1379 1984 2314 0
2 8 10 18 30 39 47 65 95 115 133 166 202 318 336 447 687 720 1050 1380 1985 2315 0
3 4 11 19 31 40 48 66 76 116 134 167 203 319 337 448 688 721 1051 1381 1986 2316 0
1 5 12 20 23 41 49 67 77 117 135 168 204 320 338 449 689 722 1052 1382 1987 2317 0
2 6 13 21 24 42 50 68 78 118 136 169 205 321 339 450 690 723 1053 1383 1988 2318 0
3 7 14 22 25 32 51 69 79 119 137 170 206 322 340 451 691 724 1054 1384 1989 2319 0
1 8 9 15 26 33 52 70 80 120 138 171 207 323 341 452 692 725 1055 1385 1990 2320 0
2 4 10 16 27 34 53 71 81 121 139 172 208 324 342 453 693 726 1056 1386 1991 2321 0
3 5 11 17 28 35 54 72 82 122 140 173 209 325 343 454 694 727 1057 1387 1992 2322 0
1 6 12 18 29 36 55 73 83 123 141 174 210 326 344 455 695 728 1058 1388 1993 2323 0
2 7 13 19 30 37 56 74 84 124 142 175 211 327 345 456 696 729 1059 1389 1994 2324 0
3 8 14 20 31 38 57 75 85 125 143 176 212 328 346 457 697 730 1060 1390 1995 2325 0
1 4 9 21 23 39 43 58 86 96 144 177 213 239 347 458 698 731 1061 1391 1996 2326 0
2 5 10 22 24 40 44 59 87 97 145 178 214 240 348 459 699 732 1062 1392 1997 2327 0
3 6 11 15 25 41 45 60 88 98 146 179 215 241 349 460 700 733 1063 1393 1998 2328 0
1 7 12 16 26 42 46 61 89 99 147 180 216 242 350 461 701 734 1064 1394 1999 2329 0
2 8 13 17 27 32 47 62 90 100 148 181 217 243 351 462 702 735 1065 1395 2000 2330 0
3 4 14 18 28 33 48 63 91 101 149 182 218 244 352 463 703 736 1066 1396 2001 2331 0
1 5 9 19 29 34 49 64 92 102 150 183 219 245 353 464 704 737 1067 1397 2002 2332 0
2 6 10 20 30 35 50 65 93 103 151 184 220 246 354 465 705 738 1068 1398 2003 2333 0
3 7 11 21 31 36 51 66 94 104 152 185 221 247 355 466 706 739 1069 1399 2004 2334 0
1 8 12 22 23 37 52 67 95 105 153 186 222 248 356 467 707 740 1070 1400 2005 2335 0
2 4 13 15 24 38 53 68 76 106 154 187 223 249 357 468 708 741 1071 1401 2006 2336 0
3 5 14 16 25 39 54 69 77 107 155 188 224 250 358 469 709 742 1072 1402 2007 2337 0
1 6 9 17 26 40 55 70 78 108 156 189 225 251 359 470 710 743 1073 1403 2008 2338 0
2 7 10 18 27 41 56 71 79 109 157 190 226 252 360 471 711 744 1074 1404 2009 2339 0
3 8 11 19 28 42 57 72 80 110 158 191 227 253 361 472 712 745 1075 1405 2010 2340 0
1 4 12 20 29 32 43 73 81 111 126 192 228 254 362 473 548 746 1076 1406 2011 2341 0
2 5 13 21 30 33 44 74 82 112 127 193 229 255 363 474 549 747 1077 1407 2012 2342 0
3 6 14 22 31 34 45 75 83 113 128 194 230 256 364 475 550 748 1078 1408 2013 2343 0
1 7 9 15 23 35 46 58 84 114 129 159 231 257 365 476 551 749 1079 1409 2014 2344 0
2 8 10 16 24 36 47 59 85 115 130 160 232 258 366 477 552 750 1080 1410 2015 2345 0
3 4 11 17 25 37 48 60 86 116 131 161 233 259 367 478 553 751 1081 1411 2016 2346 0
1 5 12 18 26 38 49 61 87 117 132 162 234 260 368 479 554 752 1082 1412 2017 2347 0
2 6 13 19 27 39 50 62 88 118 133 163 235 261 369 480 555 753 1083 1413 2018 2348 0
3 7 14 20 28 40 51 63 89 119 134 164 236 262 370 481 556 754 1084 1414 2019 2349 0
1 8 9 21 29 41 52 64 90 120 135 165 237 263 371 482 557 755 1085 1415 2020 2350 0
2 4 10 22 30 42 53 65 91 121 136 166 238 264 372 483 558 756 1086 1416 2021 2351 0
3 5 11 15 31 32 54 66 92 122 137 167 195 265 373 484 559 757 1087 1417 2022 2352 0
1 6 12 16 23 33 55 67 93 123 138 168 196 266 374 485 560 758 1088 1418 2023 2353 0
2 7 13 17 24 34 56 68 94 124 139 169 197 267 375 486 561 759 1089 1419 2024 2354 0
3 8 14 18 25 35 57 69 95 125 140 170 198 268 376 487 562 760 1090 1420 2025 2355 0
1 4 9 19 26 36 43 70 76 96 141 171 199 269 377 488 563 761 1091 1421 2026 2356 0
2 5 10 20 27 37 44 71 77 97 142 172 200 270 378 489 564 762 1092 1422 2027 2357 0
3 6 11 21 28 38 45 72 78 98 143 173 201 271 379 490 565 763 1093 1423 2028 2358 0
1 7 12 22 29 39 46 73 79 99 144 174 202 272 380 491 566 764 1094 1424 2029 2359 0
2 8 13 15 30 40 47 74 80 100 145 175 203 273 381 492 567 765 1095 1425 2030 2360 0
3 4 14 16 31 41 48 75 81 101 146 176 204 274 382 493 568 766 1096 1426 2031 2361 0
1 5 9 17 23 42 49 58 82 102 147 177 205 275 383 494 569 767 1097 1427 2032 2362 0
2 6 10 18 24 32 50 59 83 103 148 178 206 276 384 495 570 768 1098 1428 2033 2363 0
3 7 11 19 25 33 51 60 84 104 149 179 207 277 385 496 571 769 1099 1429 2034 2364 0
1 8 12 20 26 34 52 61 85 105 150 180 208 278 386 497 572 770 1100 1430 2035 2365 0
2 4 13 21 27 35 53 62 86 106 151 181 209 279 387 498 573 771 1101 1431 2036 2366 0
3 5 14 22 28 36 54 63 87 107 152 182 210 280 388 499 574 772 1102 1432 2037 2367 0
1 6 9 15 29 37 55 64 88 108 153 183 211 281 389 500 575 773 1103 1433 2038 2368 0
2 7 10 16 30 38 56 65 89 109 154 184 212 282 390 501 576 774 1104 1434 2039 2369 0
3 8 11 17 31 39 57 66 90 110 155 185 213 283 391 502 577 775 1105 1435 2040 2370 0
1 4 12 18 23 40 43 67 91 111 156 186 214 284 392 503 578 776 1106 1436 2041 2371 0
2 5 13 19 24 41 44 68 92 112 157 187 215 285 393 504 579 777 1107 1437 2042 2372 0
3 6 14 20 25 42 45 69 93 113 158 188 216 286 394 505 580 778 1108 1438 2043 2373 0
1 7 9 21 26 32 46 70 94 114 126 189 217 287 395 506 581 779 1109 1439 2044 2374 0
2 8 10 22 27 33 47 71 95 115 127 190 218 288 396 507 582 780 1110 1440 2045 2375 0
3 4 11 15 28 34 48 72 76 116 128 191 219 289 397 508 583 781 1111 1441 2046 2376 0
1 5 12 16 29 35 49 73 77 117 129 192 220 290 398 509 584 782 1112 1442 2047 2377 0
2 6 13 17 30 36 50 74 78 118 130 193 221 291 399 510 585 783 1113 1443 2048 2378 0
3 7 14 18 31 37 51 75 79 119 131 194 222 292 400 511 586 784 1114 1444 2049 2379 0
1 8 9 19 23 38 52 58 80 120 132 159 223 293 401 512 587 785 1115 1445 2050 2380 0
2 4 10 20 24 39 53 59 81 121 133 160 224 294 402 513 588 786 1116 1446 2051 2381 0
3 5 11 21 25 40 54 60 82 122 134 161 225 295 403 514 589 787 1117 1447 2052 2382 0
1 6 12 22 26 41 55 61 83 123 135 162 226 296 404 515 590 788 1118 1448 2053 2383 0
2 7 13 15 27 42 56 62 84 124 136 163 227 297 405 516 591 789 1119 1449 2054 2384 0
3 8 14 16 28 32 57 63 85 125 137 164 228 298 406 517 592 790 1120 1450 2055 2385 0
1 4 9 17 29 33 43 64 86 96 138 165 229 299 407 518 593 791 1121 1451 2056 2386 0
2 5 10 18 30 34 44 65 87 97 139 166 230 300 408 519 594 792 1122 1452 2057 2387 0
3 6 11 19 31 35 45 66 88 98 140 167 231 301 409 520 595 793 1123 1453 2058 2388 0
1 7 12 20 23 36 46 67 89 99 141 168 232 302 410 521 596 794 1124 1454 2059 2389 0
2 8 13 21 24 37 47 68 90 100 142 169 233 303 411 522 597 795 1125 1455 2060 2390 0
3 4 14 22 25 38 48 69 91 101 143 170 234 304 412 523 598 796 1126 1456 2061 2391 0
1 5 9 15 26 39 49 70 92 102 144 171 235 305 413 524 599 797 1127 1457 2062 2392 0
2 6 10 16 27 40 50 71 93 103 145 172 236 306 414 525 600 798 1128 1458 2063 2393 0
3 7 11 17 28 41 51 72 94 104 146 173 237 307 415 526 601 799 1129 1459 2064 2394 0
1 8 12 18 29 42 52 73 95 105 147 174 238 308 416 527 602 800 1130 1460 2065 2395 0
2 4 13 19 30 32 53 74 76 106 148 175 195 309 417 528 603 801 1131 1461 2066 2396 0
3 5 14 20 31 33 54 75 77 107 149 176 196 310 418 529 604 802 1132 1462 2067 2397 0
1 6 9 21 23 34 55 58 78 108 150 177 197 311 419 530 605 803 1133 1463 2068 2398 0
2 7 10 22 24 35 56 59 79 109 151 178 198 312 420 531 606 804 1134 1464 2069 2399 0
3 8 11 15 25 36 57 60 80 110 152 179 199 313 421 532 607 805 1135 1465 2070 2400 0
1 4 12 16 26 37 43 61 81 111 153 180 200 314 422 533 608 806 1136 1466 2071 2401 0
2 5 13 17 27 38 44 62 82 112 154 181 201 315 423 534 609 807 1137 1467 2072 2402 0
3 6 14 18 28 39 45 63 83 113 155 182 202 316 424 535 610 808 1138 1468 2073 2403 0
1 7 9 19 29 40 46 64 84 114 156 183 203 317 425 536 611 809 1139 1469 2074 2404 0
2 8 10 20 30 41 47 65 85 115 157 184 204 318 426 537 612 810 1140 1470 2075 2405 0
3 4 11 21 31 42 48 66 86 116 158 185 205 319 427 538 613 811 1141 1471 2076 2406 0
1 5 12 22 23 32 49 67 87 117 126 186 206 320 329 539 614 812 1142 1472 2077 2407 0
2 6 13 15 24 33 50 68 88 118 127 187 207 321 330 540 615 813 1143 1473 2078 2408 0
3 7 14 16 25 34 51 69 89 119 128 188 208 322 331 541 616 814 1144 1474 2079 2409 0
1 8 9 17 26 35 52 70 90 120 129 189 209 323 332 542 617 815 1145 1475 2080 2410 0
2 4 10 18 27 36 53 71 91 121 130 190 210 324 333 543 618 816 1146 1476 2081 2411 0
3 5 11 19 28 37 54 72 92 122 131 191 211 325 334 544 619 817 1147 1477 2082 2412 0
1 6 12 20 29 38 55 73 93 123 132 192 212 326 335 545 620 818 1148 1478 2083 2413 0
2 7 13 21 30 39 56 74 94 124 133 193 213 327 336 546 621 819 1149 1479 2084 2414 0
3 8 14 22 31 40 57 75 95 125 134 194 214 328 337 547 622 820 1150 1480 2085 2415 0
1 4 9 15 23 41 43 58 76 96 135 159 215 239 338 428 623 821 1151 1481 2086 2416 0
2 5 10 16 24 42 44 59 77 97 136 160 216 240 339 429 624 822 1152 1482 2087 2417 0
3 6 11 17 25 32 45 60 78 98 137 161 217 241 340 430 625 823 1153 1483 2088 2418 0
1 7 12 18 26 33 46 61 79 99 138 162 218 242 341 431 626 824 1154 1484 2089 2419 0
2 8 13 19 27 34 47 62 80 100 139 163 219 243 342 432 627 825 1155 1485 2090 2420 0
3 4 14 20 28 35 48 63 81 101 140 164 220 244 343 433 628 826 1156 1486 2091 2421 0
1 5 9 21 29 36 49 64 82 102 141 165 221 245 344 434 629 827 1157 1487 2092 2422 0
2 6 10 22 30 37 50 65 83 103 142 166 222 246 345 435 630 828 1158 1488 2093 2423 0
3 7 11 15 31 38 51 66 84 104 143 167 223 247 346 436 631 829 1159 1489 2094 2424 0
1 8 12 16 23 39 52 67 85 105 144 168 224 248 347 437 632 830 1160 1490 2095 2425 0
2 4 13 17 24 40 53 68 86 106 145 169 225 249 348 438 633 831 1161 1491 2096 2426 0
3 5 14 18 25 41 54 69 87 107 146 170 226 250 349 439 634 832 1162 1492 2097 2427 0
1 6 9 19 26 42 55 70 88 108 147 171 227 251 350 440 635 833 1163 1493 2098 2428 0
2 7 10 20 27 32 56 71 89 109 148 172 228 252 351 441 636 834 1164 1494 2099 2429 0
3 8 11 21 28 33 57 72 90 110 149 173 229 253 352 442 637 835 1165 1495 2100 2430 0
1 4 12 22 29 34 43 73 91 111 150 174 230 254 353 443 638 836 1166 1496 2101 2431 0
2 5 13 15 30 35 44 74 92 112 151 175 231 255 354 444 639 837 1167 1497 2102 2432 0
3 6 14 16 31 36 45 75 93 113 152 176 232 256 355 445 640 838 1168 1498 2103 2433 0
1 7 9 17 23 37 46 58 94 114 153 177 233 257 356 446 641 839 1169 1499 2104 2434 0
2 8 10 18 24 38 47 59 95 115 154 178 234 258 357 447 642 840 1170 1500 2105 2435 0
3 4 11 19 25 39 48 60 76 116 155 179 235 259 358 448 643 841 1171 1501 2106 2436 0
1 5 12 20 26 40 49 61 77 117 156 180 236 260 359 449 644 842 1172 1502 2107 2437 0
2 6 13 21 27 41 50 62 78 118 157 181 237 261 360 450 645 843 1173 1503 2108 2438 0
3 7 14 22 28 42 51 63 79 119 158 182 238 262 361 451 646 844 1174 1504 2109 2439 0
1 8 9 15 29 32 52 64 80 120 126 183 195 263 362 452 647 845 1175 1505 2110 2440 0
2 4 10 16 30 33 53 65 81 121 127 184 196 264 363 453 648 846 1176 1506 2111 2441 0
3 5 11 17 31 34 54 66 82 122 128 185 197 265 364 454 649 847 1177 1507 2112 2442 0
1 6 12 18 23 35 55 67 83 123 129 186 198 266 365 455 650 848 1178 1508 2113 2443 0
2 7 13 19 24 36 56 68 84 124 130 187 199 267 366 456 651 849 1179 1509 2114 2444 0
3 8 14 20 25 37 57 69 85 125 131 188 200 268 367 457 652 850 1180 1510 2115 2445 0
1 4 9 21 26 38 43 70 86 96 132 189 201 269 368 458 653 851 1181 1511 2116 2446 0
2 5 10 22 27 39 44 71 87 97 133 190 202 270 369 459 654 852 1182 1512 2117 2447 0
3 6 11 15 28 40 45 72 88 98 134 191 203 271 370 460 655 853 1183 1513 2118 2448 0
1 7 12 16 29 41 46 73 89 99 135 192 204 272 371 461 656 854 1184 1514 2119 2449 0
2 8 13 17 30 42 47 74 90 100 136 193 205 273 372 462 657 855 1185 1515 2120 2450 0
3 4 14 18 31 32 48 75 91 101 137 194 206 274 373 463 658 856 1186 1516 2121 2451 0
1 5 9 19 23 33 49 58 92 102 138 159 207 275 374 464 659 857 1187 1517 2122 2452 0
2 6 10 20 24 34 50 59 93 103 139 160 208 276 375 465 660 858 1188 1518 2123 2453 0
3 7 11 21 25 35 51 60 94 104 140 161 209 277 376 466 661 859 1189 1519 2124 2454 0
1 8 12 22 26 36 52 61 95 105 141 162 210 278 377 467 662 860 1190 1520 2125 2455 0
2 4 13 15 27 37 53 62 76 106 142 163 211 279 378 468 663 861 1191 1521 2126 2456 0
3 5 14 16 28 38 54 63 77 107 143 164 212 280 379 469 664 862 1192 1522 2127 2457 0
1 6 9 17 29 39 55 64 78 108 144 165 213 281 380 470 665 863 1193 1523 2128 2458 0
2 7 10 18 30 40 56 65 79 109 145 166 214 282 381 471 666 864 1194 1524 2129 2459 0
3 8 11 19 31 41 57 66 80 110 146 167 215 283 382 472 667 865 1195 1525 2130 2460 0
1 4 12 20 23 42 43 67 81 111 147 168 216 284 383 473 668 866 1196 1526 2131 2461 0
2 5 13 21 24 32 44 68 82 112 148 169 217 285 384 474 669 867 1197 1527 2132 2462 0
3 6 14 22 25 33 45 69 83 113 149 170 218 286 385 475 670 868 1198 1528 2133 2463 0
1 7 9 15 26 34 46 70 84 114 150 171 219 287 386 476 671 869 1199 1529 2134 2464 0
2 8 10 16 27 35 47 71 85 115 151 172 220 288 387 477 672 870 1200 1530 2135 2465 0
3 4 11 17 28 36 48 72 86 116 152 173 221 289 388 478 673 871 1201 1531 2136 2466 0
1 5 12 18 29 37 49 73 87 117 153 174 222 290 389 479 674 872 1202 1532 2137 2467 0
2 6 13 19 30 38 50 74 88 118 154 175 223 291 390 480 675 873 1203 1533 2138 2468 0
3 7 14 20 31 39 51 75 89 119 155 176 224 292 391 481 676 874 1204 1534 2139 2469 0
1 8 9 21 23 40 52 58 90 120 156 177 225 293 392 482 677 875 1205 1535 2140 2470 0
2 4 10 22 24 41 53 59 91 121 157 178 226 294 393 483 678 876 1206 1536 2141 2471 0
3 5 11 15 25 42 54 60 92 122 158 179 227 295 394 484 679 877 1207 1537 2142 2472 0
1 6 12 16 26 32 55 61 93 123 126 180 228 296 395 485 680 878 1208 1538 2143 2473 0
2 7 13 17 27 33 56 62 94 124 127 181 229 297 396 486 681 879 1209 1539 2144 2474 0
3 8 14 18 28 34 57 63 95 125 128 182 230 298 397 487 682 880 1210 1540 2145 2475 0
1 4 9 19 29 35 43 64 76 96 129 183 231 299 398 488 683 881 1211 1541 2146 2476 0
2 5 10 20 30 36 44 65 77 97 130 184 232 300 399 489 684 882 1212 1542 2147 2477 0
3 6 11 21 31 37 45 66 78 98 131 185 233 301 400 490 685 883 1213 1543 2148 2478 0
1 7 12 22 23 38 46 67 79 99 132 186 234 302 401 491 686 884 1214 1544 2149 2479 0
2 8 13 15 24 39 47 68 80 100 133 187 235 303 402 492 687 885 1215 1545 2150 2480 0
3 4 14 16 25 40 48 69 81 101 134 188 236 304 403 493 688 886 1216 1546 2151 2481 0
1 5 9 17 26 41 49 70 82 102 135 189 237 305 404 494 689 887 1217 1547 2152 2482 0
2 6 10 18 27 42 50 71 83 103 136 190 238 306 405 495 690 888 1218 1548 2153 2483 0
3 7 11 19 28 32 51 72 84 104 137 191 195 307 406 496 691 889 1219 1549 2154 2484 0
1 8 12 20 29 33 52 73 85 105 138 192 196 308 407 497 692 890 1220 1550 2155 2485 0
2 4 13 21 30 34 53 74 86 106 139 193 197 309 408 498 693 891 1221 1551 2156 2486 0
3 5 14 22 31 35 54 75 87 107 140 194 198 310 409 499 694 892 1222 1552 2157 2487 0
1 6 9 15 23 36 55 58 88 108 141 159 199 311 410 500 695 893 1223 1553 2158 2488 0
2 7 10 16 24 37 56 59 89 109 142 160 200 312 411 501 696 894 1224 1554 2159 2489 0
3 8 11 17 25 38 57 60 90 110 143 161 201 313 412 502 697 895 1225 1555 2160 2490 0
1 4 12 18 26 39 43 61 91 111 144 162 202 314 413 503 698 896 1226 1556 2161 2491 0
2 5 13 19 27 40 44 62 92 112 145 163 203 315 414 504 699 897 1227 1557 2162 2492 0
3 6 14 20 28 41 45 63 93 113 146 164 204 316 415 505 700 898 1228 1558 2163 2493 0
1 7 9 21 29 42 46 64 94 114 147 165 205 317 416 506 701 899 1229 1559 2164 2494 0
2 8 10 22 30 32 47 65 95 115 148 166 206 318 417 507 702 900 1230 1560 2165 2495 0
3 4 11 15 31 33 48 66 76 116 149 167 207 319 418 508 703 901 1231 1561 2166 2496 0
1 5 12 16 23 34 49 67 77 117 150 168 208 320 419 509 704 902 1232 1562 2167 2497 0
2 6 13 17 24 35 50 68 78 118 151 169 209 321 420 510 705 903 1233 1563 2168 2498 0
3 7 14 18 25 36 51 69 79 119 152 170 210 322 421 511 706 904 1234 1564 2169 2499 0
1 8 9 19 26 37 52 70 80 120 153 171 211 323 422 512 707 905 1235 1565 2170 2500 0
2 4 10 20 27 38 53 71 81 121 154 172 212 324 423 513 708 906 1236 1566 2171 2501 0
3 5 11 21 28 39 54 72 82 122 155 173 213 325 424 514 709 907 1237 1567 2172 2502 0
1 6 12 22 29 40 55 73 83 123 156 174 214 326 425 515 710 908 1238 1568 2173 2503 0
2 7 13 15 30 41 56 74 84 124 157 175 215 327 426 516 711 909 1239 1569 2174 2504 0
3 8 14 16 31 42 57 75 85 125 158 176 216 328 427 517 712 910 1240 1570 2175 2505 0
1 4 9 17 23 32 43 58 86 96 126 177 217 239 329 518 548 713 911 1571 1681 2506 0
2 5 10 18 24 33 44 59 87 97 127 178 218 240 330 519 549 714 912 1572 1682 2507 0
3 6 11 19 25 34 45 60 88 98 128 179 219 241 331 520 550 715 913 1573 1683 2508 0
1 7 12 20 26 35 46 61 89 99 129 180 220 242 332 521 551 716 914 1574 1684 2509 0
2 8 13 21 27 36 47 62 90 100 130 181 221 243 333 522 552 717 915 1575 1685 2510 0
3 4 14 22 28 37 48 63 91 101 131 182 222 244 334 523 553 718 916 1576 1686 2511 0
1 5 9 15 29 38 49 64 92 102 132 183 223 245 335 524 554 719 917 1577 1687 2512 0
2 6 10 16 30 39 50 65 93 103 133 184 224 246 336 525 555 720 918 1578 1688 2513 0
3 7 11 17 31 40 51 66 94 104 134 185 225 247 337 526 556 721 919 1579 1689 2514 0
1 8 12 18 23 41 52 67 95 105 135 186 226 248 338 527 557 722 920 1580 1690 2515 0
2 4 13 19 24 42 53 68 76 106 136 187 227 249 339 528 558 723 921 1581 1691 2516 0
3 5 14 20 25 32 54 69 77 107 137 188 228 250 340 529 559 724 922 1582 1692 2517 0
1 6 9 21 26 33 55 70 78 108 138 189 229 251 341 530 560 725 923 1583 1693 2518 0
2 7 10 22 27 34 56 71 79 109 139 190 230 252 342 531 561 726 924 1584 1694 2519 0
3 8 11 15 28 35 57 72 80 110 140 191 231 253 343 532 562 727 925 1585 1695 2520 0
1 4 12 16 29 36 43 73 81 111 141 192 232 254 344 533 563 728 926 1586 1696 2521 0
2 5 13 17 30 37 44 74 82 112 142 193 233 255 345 534 564 729 927 1587 1697 2522 0
3 6 14 18 31 38 45 75 83 113 143 194 234 256 346 535 565 730 928 1588 1698 2523 0
1 7 9 19 23 39 46 58 84 114 144 159 235 257 347 536 566 731 929 1589 1699 2524 0
2 8 10 20 24 40 47 59 85 115 145 160 236 258 348 537 567 732 930 1590 1700 2525 0
3 4 11 21 25 41 48 60 86 116 146 161 237 259 349 538 568 733 931 1591 1701 2526 0
1 5 12 22 26 42 49 61 87 117 147 162 238 260 350 539 569 734 932 1592 1702 2527 0
2 6 13 15 27 32 50 62 88 118 148 163 195 261 351 540 570 735 933 1593 1703 2528 0
3 7 14 16 28 33 51 63 89 119 149 164 196 262 352 541 571 736 934 1594 1704 2529 0
1 8 9 17 29 34 52 64 90 120 150 165 197 263 353 542 572 737 935 1595 1705 2530 0
2 4 10 18 30 35 53 65 91 121 151 166 198 264 354 543 573 738 936 1596 1706 2531 0
3 5 11 19 31 36 54 66 92 122 152 167 199 265 355 544 574 739 937 1597 1707 2532 0
1 6 12 20 23 37 55 67 93 123 153 168 200 266 356 545 575 740 938 1598 1708 2533 0
2 7 13 21 24 38 56 68 94 124 154 169 201 267 357 546 576 741 939 1599 1709 2534 0
3 8 14 22 25 39 57 69 95 125 155 170 202 268 358 547 577 742 940 1600 1710 2535 0
1 4 9 15 26 40 43 70 76 96 156 171 203 269 359 428 578 743 941 1601 1711 2536 0
2 5 10 16 27 41 44 71 77 97 157 172 204 270 360 429 579 744 942 1602 1712 2537 0
3 6 11 17 28 42 45 72 78 98 158 173 205 271 361 430 580 745 943 1603 1713 2538 0
1 7 12 18 29 32 46 73 79 99 126 174 206 272 362 431 581 746 944 1604 1714 2539 0
2 8 13 19 30 33 47 74 80 100 127 175 207 273 363 432 582 747 945 1605 1715 2540 0
3 4 14 20 31 34 48 75 81 101 128 176 208 274 364 433 583 748 946 1606 1716 2541 0
1 5 9 21 23 35 49 58 82 102 129 177 209 275 365 434 584 749 947 1607 1717 2542 0
2 6 10 22 24 36 50 59 83 103 130 178 210 276 366 435 585 750 948 1608 1718 2543 0
3 7 11 15 25 37 51 60 84 104 131 179 211 277 367 436 586 751 949 1609 1719 2544 0
1 8 12 16 26 38 52 61 85 105 132 180 212 278 368 437 587 752 950 1610 1720 2545 0
2 4 13 17 27 39 53 62 86 106 133 181 213 279 369 438 588 753 951 1611 1721 2546 0
3 5 14 18 28 40 54 63 87 107 134 182 214 280 370 439 589 754 952 1612 1722 2547 0
1 6 9 19 29 41 55 64 88 108 135 183 215 281 371 440 590 755 953 1613 1723 2548 0
2 7 10 20 30 42 56 65 89 109 136 184 216 282 372 441 591 756 954 1614 1724 2549 0
3 8 11 21 31 32 57 66 90 110 137 185 217 283 373 442 592 757 955 1615 1725 2550 0
1 4 12 22 23 33 43 67 91 111 138 186 218 284 374 443 593 758 956 1616 1726 2551 0
2 5 13 15 24 34 44 68 92 112 139 187 219 285 375 444 594 759 957 1617 1727 2552 0
3 6 14 16 25 35 45 69 93 113 140 188 220 286 376 445 595 760 958 1618 1728 2553 0
1 7 9 17 26 36 46 70 94 114 141 189 221 287 377 446 596 761 959 1619 1729 2554 0
2 8 10 18 27 37 47 71 95 115 142 190 222 288 378 447 597 762 960 1620 1730 2555 0
3 4 11 19 28 38 48 72 76 116 143 191 223 289 379 448 598 763 961 1621 1731 2556 0
1 5 12 20 29 39 49 73 77 117 144 192 224 290 380 449 599 764 962 1622 1732 2557 0
2 6 13 21 30 40 50 74 78 118 145 193 225 291 381 450 600 765 963 1623 1733 2558 0
3 7 14 22 31 41 51 75 79 119 146 194 226 292 382 451 601 766 964 1624 1734 2559 0
1 8 9 15 23 42 52 58 80 120 147 159 227 293 383 452 602 767 965 1625 1735 2560 0
2 4 10 16 24 32 53 59 81 121 148 160 228 294 384 453 603 768 966 1626 1736 2561 0
3 5 11 17 25 33 54 60 82 122 149 161 229 295 385 454 604 769 967 1627 1737 2562 0
1 6 12 18 26 34 55 61 83 123 150 162 230 296 386 455 605 770 968 1628 1738 2563 0
2 7 13 19 27 35 56 62 84 124 151 163 231 297 387 456 606 771 969 1629 1739 2564 0
3 8 14 20 28 36 57 63 85 125 152 164 232 298 388 457 607 772 970 1630 1740 2565 0
1 4 9 21 29 37 43 64 86 96 153 165 233 299 389 458 608 773 971 1631 1741 2566 0
2 5 10 22 30 38 44 65 87 97 154 166 234 300 390 459 609 774 972 1632 1742 2567 0
3 6 11 15 31 39 45 66 88 98 155 167 235 301 391 460 610 775 973 1633 1743 2568 0
1 7 12 16 23 40 46 67 89 99 156 168 236 302 392 461 611 776 974 1634 1744 2569 0
2 8 13 17 24 41 47 68 90 100 157 169 237 303 393 462 612 777 975 1635 1745 2570 0
3 4 14 18 25 42 48 69 91 101 158 170 238 304 394 463 613 778 976 1636 1746 2571 0
1 5 9 19 26 32 49 70 92 102 126 171 195 305 395 464 614 779 977 1637 1747 2572 0
2 6 10 20 27 33 50 71 93 103 127 172 196 306 396 465 615 780 978 1638 1748 2573 0
3 7 11 21 28 34 51 72 94 104 128 173 197 307 397 466 616 781 979 1639 1749 2574 0
1 8 12 22 29 35 52 73 95 105 129 174 198 308 398 467 617 782 980 1640 1750 2575 0
2 4 13 15 30 36 53 74 76 106 130 175 199 309 399 468 618 783 981 1641 1751 2576 0
3 5 14 16 31 37 54 75 77 107 131 176 200 310 400 469 619 784 982 1642 1752 2577 0
1 6 9 17 23 38 55 58 78 108 132 177 201 311 401 470 620 785 983 1643 1753 2578 0
2 7 10 18 24 39 56 59 79 109 133 178 202 312 402 471 621 786 984 1644 1754 2579 0
3 8 11 19 25 40 57 60 80 110 134 179 203 313 403 472 622 787 985 1645 1755 2580 0
1 4 12 20 26 41 43 61 81 111 135 180 204 314 404 473 623 788 986 1646 1756 2581 0
2 5 13 21 27 42 44 62 82 112 136 181 205 315 405 474 624 789 987 1647 1757 2582 0
3 6 14 22 28 32 45 63 83 113 137 182 206 316 406 475 625 790 988 1648 1758 2583 0
1 7 9 15 29 33 46 64 84 114 138 183 207 317 407 476 626 791 989 1649 1759 2584 0
2 8 10 16 30 34 47 65 85 115 139 184 208 318 408 477 627 792 990 1650 1760 2585 0
3 4 11 17 31 35 48 66 86 116 140 185 209 319 409 478 628 793 991 1651 1761 2586 0
1 5 12 18 23 36 49 67 87 117 141 186 210 320 410 479 629 794 992 1652 1762 2587 0
2 6 13 19 24 37 50 68 88 118 142 187 211 321 411 480 630 795 993 1653 1763 2588 0
3 7 14 20 25 38 51 69 89 119 143 188 212 322 412 481 631 796 994 1654 1764 2589 0
1 8 9 21 26 39 52 70 90 120 144 189 213 323 413 482 632 797 995 1655 1765 2590 0
2 4 10 22 27 40 53 71 91 121 145 190 214 324 414 483 633 798 996 1656 1766 2591 0
3 5 11 15 28 41 54 72 92 122 146 191 215 325 415 484 634 799 997 1657 1767 2592 0
1 6 12 16 29 42 55 73 93 123 147 192 216 326 416 485 635 800 998 1658 1768 2593 0
2 7 13 17 30 32 56 74 94 124 148 193 217 327 417 486 636 801 999 1659 1769 2594 0
3 8 14 18 31 33 57 75 95 125 149 194 218 328 418 487 637 802 1000 1660 1770 2595 0
1 4 9 19 23 34 43 58 76 96 150 159 219 239 419 488 638 803 1001 1661 1771 2596 0
2 5 10 20 24 35 44 59 77 97 151 160 220 240 420 489 639 804 1002 1662 1772 2597 0
3 6 11 21 25 36 45 60 78 98 152 161 221 241 421 490 640 805 1003 1663 1773 2598 0
1 7 12 22 26 37 46 61 79 99 153 162 222 242 422 491 641 806 1004 1664 1774 2599 0
2 8 13 15 27 38 47 62 80 100 154 163 223 243 423 492 642 807 1005 1665 1775 2600 0
3 4 14 16 28 39 48 63 81 101 155 164 224 244 424 493 643 808 1006 1666 1776 2601 0
1 5 9 17 29 40 49 64 82 102 156 165 225 245 425 494 644 809 1007 1667 1777 2602 0
2 6 10 18 30 41 50 65 83 103 157 166 226 246 426 495 645 810 1008 1668 1778 2603 0
3 7 11 19 31 42 51 66 84 104 158 167 227 247 427 496 646 811 1009 1669 1779 2604 0
1 8 12 20 23 32 52 67 85 105 126 168 228 248 329 497 647 812 1010 1670 1780 2605 0
2 4 13 21 24 33 53 68 86 106 127 169 229 249 330 498 648 813 1011 1671 1781 2606 0
3 5 14 22 25 34 54 69 87 107 128 170 230 250 331 499 649 814 1012 1672 1782 2607 0
1 6 9 15 26 35 55 70 88 108 129 171 231 251 332 500 650 815 1013 1673 1783 2608 0
2 7 10 16 27 36 56 71 89 109 130 172 232 252 333 501 651 816 1014 1674 1784 2609 0
3 8 11 17 28 37 57 72 90 110 131 173 233 253 334 502 652 817 1015 1675 1785 2610 0
1 4 12 18 29 38 43 73 91 111 132 174 234 254 335 503 653 818 1016 1676 1786 2611 0
2 5 13 19 30 39 44 74 92 112 133 175 235 255 336 504 654 819 1017 1677 1787 2612 0
3 6 14 20 31 40 45 75 93 113 134 176 236 256 337 505 655 820 1018 1678 1788 2613 0
1 7 9 21 23 41 46 58 94 114 135 177 237 257 338 506 656 821 1019 1679 1789 2614 0
2 8 10 22 24 42 47 59 95 115 136 178 238 258 339 507 657 822 1020 1680 1790 2615 0
3 4 11 15 25 32 48 60 76 116 137 179 195 259 340 508 658 823 1021 1241 1791 2616 0
1 5 12 16 26 33 49 61 77 117 138 180 196 260 341 509 659 824 1022 1242 1792 2617 0
2 6 13 17 27 34 50 62 78 118 139 181 197 261 342 510 660 825 1023 1243 1793 2618 0
3 7 14 18 28 35 51 63 79 119 140 182 198 262 343 511 661 826 1024 1244 1794 2619 0
1 8 9 19 29 36 52 64 80 120 141 183 199 263 344 512 662 827 1025 1245 1795 2620 0
2 4 10 20 30 37 53 65 81 121 142 184 200 264 345 513 663 828 1026 1246 1796 2621 0
3 5 11 21 31 38 54 66 82 122 143 185 201 265 346 514 664 829 1027 1247 1797 2622 0
1 6 12 22 23 39 55 67 83 123 144 186 202 266 347 515 665 830 1028 1248 1798 2623 0
2 7 13 15 24 40 56 68 84 124 145 187 203 267 348 516 666 831 1029 1249 1799 2624 0
3 8 14 16 25 41 57 69 85 125 146 188 204 268 349 517 667 832 1030 1250 1800 2625 0
1 4 9 17 26 42 43 70 86 96 147 189 205 269 350 518 668 833 1031 1251 1801 2626 0
2 5 10 18 27 32 44 71 87 97 148 190 206 270 351 519 669 834 1032 1252 1802 2627 0
3 6 11 19 28 33 45 72 88 98 149 191 207 271 352 520 670 835 1033 1253 1803 2628 0
1 7 12 20 29 34 46 73 89 99 150 192 208 272 353 521 671 836 1034 1254 1804 2629 0
2 8 13 21 30 35 47 74 90 100 151 193 209 273 354 522 672 837 1035 1255 1805 2630 0
3 4 14 22 31 36 48 75 91 101 152 194 210 274 355 523 673 838 1036 1256 1806 2631 0
1 5 9 15 23 37 49 58 92 102 153 159 211 275 356 524 674 839 1037 1257 1807 2632 0
2 6 10 16 24 38 50 59 93 103 154 160 212 276 357 525 675 840 1038 1258 1808 2633 0
3 7 11 17 25 39 51 60 94 104 155 161 213 277 358 526 676 841 1039 1259 1809 2634 0
1 8 12 18 26 40 52 61 95 105 156 162 214 278 359 527 677 842 1040 1260 1810 2635 0
2 4 13 19 27 41 53 62 76 106 157 163 215 279 360 528 678 843 1041 1261 1811 2636 0
3 5 14 20 28 42 54 63 77 107 158 164 216 280 361 529 679 844 1042 1262 1812 2637 0
1 6 9 21 29 32 55 64 78 108 126 165 217 281 362 530 680 845 1043 1263 1813 2638 0
2 7 10 22 30 33 56 65 79 109 127 166 218 282 363 531 681 846 1044 1264 1814 2639 0
3 8 11 15 31 34 57 66 80 110 128 167 219 283 364 532 682 847 1045 1265 1815 2640 0
1 4 12 16 23 35 43 67 81 111 129 168 220 284 365 533 683 848 1046 1266 1816 2641 0
2 5 13 17 24 36 44 68 82 112 130 169 221 285 366 534 684 849 1047 1267 1817 2642 0
3 6 14 18 25 37 45 69 83 113 131 170 222 286 367 535 685 850 1048 1268 1818 2643 0
1 7 9 19 26 38 46 70 84 114 132 171 223 287 368 536 686 851 1049 1269 1819 2644 0
2 8 10 20 27 39 47 71 85 115 133 172 224 288 369 537 687 852 1050 1270 1820 2645 0
3 4 11 21 28 40 48 72 86 116 134 173 225 289 370 538 688 853 1051 1271 1821 2646 0
1 5 12 22 29 41 49 73 87 117 135 174 226 290 371 539 689 854 1052 1272 1822 2647 0
2 6 13 15 30 42 50 74 88 118 136 175 227 291 372 540 690 855 1053 1273 1823 2648 0
3 7 14 16 31 32 51 75 89 119 137 176 228 292 373 541 691 856 1054 1274 1824 2649 0
1 8 9 17 23 33 52 58 90 120 138 177 229 293 374 542 692 857 1055 1275 1825 2650 0
2 4 10 18 24 34 53 59 91 121 139 178 230 294 375 543 693 858 1056 1276 1826 2651 0
3 5 11 19 25 35 54 60 92 122 140 179 231 295 376 544 694 859 1057 1277 1827 2652 0
1 6 12 20 26 36 55 61 93 123 141 180 232 296 377 545 695 860 1058 1278 1828 2653 0
2 7 13 21 27 37 56 62 94 124 142 181 233 297 378 546 696 861 1059 1279 1829 2654 0
3 8 14 22 28 38 57 63 95 125 143 182 234 298 379 547 697 862 1060 1280 1830 2655 0
1 4 9 15 29 39 43 64 76 96 144 183 235 299 380 428 698 863 1061 1281 1831 2656 0
2 5 10 16 30 40 44 65 77 97 145 184 236 300 381 429 699 864 1062 1282 1832 2657 0
3 6 11 17 31 41 45 66 78 98 146 185 237 301 382 430 700 865 1063 1283 1833 2658 0
1 7 12 18 23 42 46 67 79 99 147 186 238 302 383 431 701 866 1064 1284 1834 2659 0
2 8 13 19 24 32 47 68 80 100 148 187 195 303 384 432 702 867 1065 1285 1835 2660 0
3 4 14 20 25 33 48 69 81 101 149 188 196 304 385 433 703 868 1066 1286 1836 2661 0
1 5 9 21 26 34 49 70 82 102 150 189 197 305 386 434 704 869 1067 1287 1837 2662 0
2 6 10 22 27 35 50 71 83 103 151 190 198 306 387 435 705 870 1068 1288 1838 2663 0
3 7 11 15 28 36 51 72 84 104 152 191 199 307 388 436 706 871 1069 1289 1839 2664 0
1 8 12 16 29 37 52 73 85 105 153 192 200 308 389 437 707 872 1070 1290 1840 2665 0
2 4 13 17 30 38 53 74 86 106 154 193 201 309 390 438 708 873 1071 1291 1841 2666 0
3 5 14 18 31 39 54 75 87 107 155 194 202 310 391 439 709 874 1072 1292 1842 2667 0
1 6 9 19 23 40 55 58 88 108 156 159 203 311 392 440 710 875 1073 1293 1843 2668 0
2 7 10 20 24 41 56 59 89 109 157 160 204 312 393 441 711 876 1074 1294 1844 2669 0
3 8 11 21 25 42 57 60 90 110 158 161 205 313 394 442 712 877 1075 1295 1845 2670 0
1 4 12 22 26 32 43 61 91 111 126 162 206 314 395 443 548 878 1076 1296 1846 2671 0
2 5 13 15 27 33 44 62 92 112 127 163 207 315 396 444 549 879 1077 1297 1847 2672 0
3 6 14 16 28 34 45 63 93 113 128 164 208 316 397 445 550 880 1078 1298 1848 2673 0
1 7 9 17 29 35 46 64 94 114 129 165 209 317 398 446 551 881 1079 1299 1849 2674 0
2 8 10 18 30 36 47 65 95 115 130 166 210 318 399 447 552 882 1080 1300 1850 2675 0
3 4 11 19 31 37 48 66 76 116 131 167 211 319 400 448 553 883 1081 1301 1851 2676 0
1 5 12 20 23 38 49 67 77 117 132 168 212 320 401 449 554 884 1082 1302 1852 2677 0
2 6 13 21 24 39 50 68 78 118 133 169 213 321 402 450 555 885 1083 1303 1853 2678 0
3 7 14 22 25 40 51 69 79 119 134 170 214 322 403 451 556 886 1084 1304 1854 2679 0
1 8 9 15 26 41 52 70 80 120 135 171 215 323 404 452 557 887 1085 1305 1855 2680 0
2 4 10 16 27 42 53 71 81 121 136 172 216 324 405 453 558 888 1086 1306 1856 2681 0
3 5 11 17 28 32 54 72 82 122 137 173 217 325 406 454 559 889 1087 1307 1857 2682 0
1 6 12 18 29 33 55 73 83 123 138 174 218 326 407 455 560 890 1088 1308 1858 2683 0
2 7 13 19 30 34 56 74 84 124 139 175 219 327 408 456 561 891 1089 1309 1859 2684 0
3 8 14 20 31 35 57 75 85 125 140 176 220 328 409 457 562 892 1090 1310 1860 2685 0
1 4 9 21 23 36 43 58 86 96 141 177 221 239 410 458 563 893 1091 1311 1861 2686 0
2 5 10 22 24 37 44 59 87 97 142 178 222 240 411 459 564 894 1092 1312 1862 2687 0
3 6 11 15 25 38 45 60 88 98 143 179 223 241 412 460 565 895 1093 1313 1863 2688 0
1 7 12 16 26 39 46 61 89 99 144 180 224 242 413 461 566 896 1094 1314 1864 2689 0
2 8 13 17 27 40 47 62 90 100 145 181 225 243 414 462 567 897 1095 1315 1865 2690 0
3 4 14 18 28 41 48 63 91 101 146 182 226 244 415 463 568 898 1096 1316 1866 2691 0
1 5 9 19 29 42 49 64 92 102 147 183 227 245 416 464 569 899 1097 1317 1867 2692 0
2 6 10 20 30 32 50 65 93 103 148 184 228 246 417 465 570 900 1098 1318 1868 2693 0
3 7 11 21 31 33 51 66 94 104 149 185 229 247 418 466 571 901 1099 1319 1869 2694 0
1 8 12 22 23 34 52 67 95 105 150 186 230 248 419 467 572 902 1100 1320 1870 2695 0
2 4 13 15 24 35 53 68 76 106 151 187 231 249 420 468 573 903 1101 1321 1871 2696 0
3 5 14 16 25 36 54 69 77 107 152 188 232 250 421 469 574 904 1102 1322 1872 2697 0
1 6 9 17 26 37 55 70 78 108 153 189 233 251 422 470 575 905 1103 1323 1873 2698 0
2 7 10 18 27 38 56 71 79 109 154 190 234 252 423 471 576 906 1104 1324 1874 2699 0
3 8 11 19 28 39 57 72 80 110 155 191 235 253 424 472 577 907 1105 1325 1875 2700 0
1 4 12 20 29 40 43 73 81 111 156 192 236 254 425 473 578 908 1106 1326 1876 2701 0
2 5 13 21 30 41 44 74 82 112 157 193 237 255 426 474 579 909 1107 1327 1877 2702 0
3 6 14 22 31 42 45 75 83 113 158 194 238 256 427 475 580 910 1108 1328 1878 2703 0
1 7 9 15 23 32 46 58 84 114 126 159 195 257 329 476 581 713 1109 1329 1879 2704 0
2 8 10 16 24 33 47 59 85 115 127 160 196 258 330 477 582 714 1110 1330 1880 2705 0
3 4 11 17 25 34 48 60 86 116 128 161 197 259 331 478 583 715 1111 1331 1881 2706 0
1 5 12 18 26 35 49 61 87 117 129 162 198 260 332 479 584 716 1112 1332 1882 2707 0
2 6 13 19 27 36 50 62 88 118 130 163 199 261 333 480 585 717 1113 1333 1883 2708 0
3 7 14 20 28 37 51 63 89 119 131 164 200 262 334 481 586 718 1114 1334 1884 2709 0
1 8 9 21 29 38 52 64 90 120 132 165 201 263 335 482 587 719 1115 1335 1885 2710 0
2 4 10 22 30 39 53 65 91 121 133 166 202 264 336 483 588 720 1116 1336 1886 2711 0
3 5 11 15 31 40 54 66 92 122 134 167 203 265 337 484 589 721 1117 1337 1887 2712 0
1 6 12 16 23 41 55 67 93 123 135 168 204 266 338 485 590 722 1118 1338 1888 2713 0
2 7 13 17 24 42 56 68 94 124 136 169 205 267 339 486 591 723 1119 1339 1889 2714 0
3 8 14 18 25 32 57 69 95 125 137 170 206 268 340 487 592 724 1120 1340 1890 2715 0
1 4 9 19 26 33 43 70 76 96 138 171 207 269 341 488 593 725 1121 1341 1891 2716 0
2 5 10 20 27 34 44 71 77 97 139 172 208 270 342 489 594 726 1122 1342 1892 2717 0
3 6 11 21 28 35 45 72 78 98 140 173 209 271 343 490 595 727 1123 1343 1893 2718 0
1 7 12 22 29 36 46 73 79 99 141 174 210 272 344 491 596 728 1124 1344 1894 2719 0
2 8 13 15 30 37 47 74 80 100 142 175 211 273 345 492 597 729 1125 1345 1895 2720 0
3 4 14 16 31 38 48 75 81 101 143 176 212 274 346 493 598 730 1126 1346 1896 2721 0
1 5 9 17 23 39 49 58 82 102 144 177 213 275 347 494 599 731 1127 1347 1897 2722 0
2 6 10 18 24 40 50 59 83 103 145 178 214 276 348 495 600 732 1128 1348 1898 2723 0
3 7 11 19 25 41 51 60 84 104 146 179 215 277 349 496 601 733 1129 1349 1899 2724 0
1 8 12 20 26 42 52 61 85 105 147 180 216 278 350 497 602 734 1130 1350 1900 2725 0
2 4 13 21 27 32 53 62 86 106 148 181 217 279 351 498 603 735 1131 1351 1901 2726 0
3 5 14 22 28 33 54 63 87 107 149 182 218 280 352 499 604 736 1132 1352 1902 2727 0
1 6 9 15 29 34 55 64 88 108 150 183 219 281 353 500 605 737 1133 1353 1903 2728 0
2 7 10 16 30 35 56 65 89 109 151 184 220 282 354 501 606 738 1134 1354 1904 2729 0
3 8 11 17 31 36 57 66 90 110 152 185 221 283 355 502 607 739 1135 1355 1905 2730 0
1 4 12 18 23 37 43 67 91 111 153 186 222 284 356 503 608 740 1136 1356 1906 2731 0
2 5 13 19 24 38 44 68 92 112 154 187 223 285 357 504 609 741 1137 1357 1907 2732 0
3 6 14 20 25 39 45 69 93 113 155 188 224 286 358 505 610 742 1138 1358 1908 2733 0
1 7 9 21 26 40 46 70 94 114 156 189 225 287 359 506 611 743 1139 1359 1909 2734 0
2 8 10 22 27 41 47 71 95 115 157 190 226 288 360 507 612 744 1140 1360 1910 2735 0
3 4 11 15 28 42 48 72 76 116 158 191 227 289 361 508 613 745 1141 1361 1911 2736 0
1 5 12 16 29 32 49 73 77 117 126 192 228 290 362 509 614 746 1142 1362 1912 2737 0
2 6 13 17 30 33 50 74 78 118 127 193 229 291 363 510 615 747 1143 1363 1913 2738 0
3 7 14 18 31 34 51 75 79 119 128 194 230 292 364 511 616 748 1144 1364 1914 2739 0
1 8 9 19 23 35 52 58 80 120 129 159 231 293 365 512 617 749 1145 1365 1915 2740 0
2 4 10 20 24 36 53 59 81 121 130 160 232 294 366 513 618 750 1146 1366 1916 2741 0
3 5 11 21 25 37 54 60 82 122 131 161 233 295 367 514 619 751 1147 1367 1917 2742 0
1 6 12 22 26 38 55 61 83 123 132 162 234 296 368 515 620 752 1148 1368 1918 2743 0
2 7 13 15 27 39 56 62 84 124 133 163 235 297 369 516 621 753 1149 1369 1919 2744 0
3 8 14 16 28 40 57 63 85 125 134 164 236 298 370 517 622 754 1150 1370 1920 2745 0
1 4 9 17 29 41 43 64 86 96 135 165 237 299 371 518 623 755 1151 1371 1921 2746 0
2 5 10 18 30 42 44 65 87 97 136 166 238 300 372 519 624 756 1152 1372 1922 2747 0
3 6 11 19 31 32 45 66 88 98 137 167 195 301 373 520 625 757 1153 1373 1923 2748 0
1 7 12 20 23 33 46 67 89 99 138 168 196 302 374 521 626 758 1154 1374 1924 2749 0
2 8 13 21 24 34 47 68 90 100 139 169 197 303 375 522 627 759 1155 1375 1925 2750 0
3 4 14 22 25 35 48 69 91 101 140 170 198 304 376 523 628 760 1156 1376 1926 2751 0
1 5 9 15 26 36 49 70 92 102 141 171 199 305 377 524 629 761 1157 1377 1927 2752 0
2 6 10 16 27 37 50 71 93 103 142 172 200 306 378 525 630 762 1158 1378 1928 2753 0
3 7 11 17 28 38 51 72 94 104 143 173 201 307 379 526 631 763 1159 1379 1929 2754 0
1 8 12 18 29 39 52 73 95 105 144 174 202 308 380 527 632 764 1160 1380 1930 2755 0
2 4 13 19 30 40 53 74 76 106 145 175 203 309 381 528 633 765 1161 1381 1931 2756 0
3 5 14 20 31 41 54 75 77 107 146 176 204 310 382 529 634 766 1162 1382 1932 2757 0
1 6 9 21 23 42 55 58 78 108 147 177 205 311 383 530 635 767 1163 1383 1933 2758 0
2 7 10 22 24 32 56 59 79 109 148 178 206 312 384 531 636 768 1164 1384 1934 2759 0
3 8 11 15 25 33 57 60 80 110 149 179 207 313 385 532 637 769 1165 1385 1935 2760 0
1 4 12 16 26 34 43 61 81 111 150 180 208 314 386 533 638 770 1166 1386 1936 2761 0
2 5 13 17 27 35 44 62 82 112 151 181 209 315 387 534 639 771 1167 1387 1937 2762 0
3 6 14 18 28 36 45 63 83 113 152 182 210 316 388 535 640 772 1168 1388 1938 2763 0
1 7 9 19 29 37 46 64 84 114 153 183 211 317 389 536 641 773 1169 1389 1939 2764 0
2 8 10 20 30 38 47 65 85 115 154 184 212 318 390 537 642 774 1170 1390 1940 2765 0
3 4 11 21 31 39 48 66 86 116 155 185 213 319 391 538 643 775 1171 1391 1941 2766 0
1 5 12 22 23 40 49 67 87 117 156 186 214 320 392 539 644 776 1172 1392 1942 2767 0
2 6 13 15 24 41 50 68 88 118 157 187 215 321 393 540 645 777 1173 1393 1943 2768 0
3 7 14 16 25 42 51 69 89 119 158 188 216 322 394 541 646 778 1174 1394 1944 2769 0
1 8 9 17 26 32 52 70 90 120 126 189 217 323 395 542 647 779 1175 1395 1945 2770 0
2 4 10 18 27 33 53 71 91 121 127 190 218 324 396 543 648 780 1176 1396 1946 2771 0
3 5 11 19 28 34 54 72 92 122 128 191 219 325 397 544 649 781 1177 1397 1947 2772 0
1 6 12 20 29 35 55 73 93 123 129 192 220 326 398 545 650 782 1178 1398 1948 2773 0
2 7 13 21 30 36 56 74 94 124 130 193 221 327 399 546 651 783 1179 1399 1949 2774 0
3 8 14 22 31 37 57 75 95 125 131 194 222 328 400 547 652 784 1180 1400 1950 2775 0
1 4 9 15 23 38 43 58 76 96 132 159 223 239 401 428 653 785 1181 1401 1951 2776 0
2 5 10 16 24 39 44 59 77 97 133 160 224 240 402 429 654 786 1182 1402 1952 2777 0
3 6 11 17 25 40 45 60 78 98 134 161 225 241 403 430 655 787 1183 1403 1953 2778 0
1 7 12 18 26 41 46 61 79 99 135 162 226 242 404 431 656 788 1184 1404 1954 2779 0
2 8 13 19 27 42 47 62 80 100 136 163 227 243 405 432 657 789 1185 1405 1955 2780 0
3 4 14 20 28 32 48 63 81 101 137 164 228 244 406 433 658 790 1186 1406 1956 2781 0
1 5 9 21 29 33 49 64 82 102 138 165 229 245 407 434 659 791 1187 1407 1957 2782 0
2 6 10 22 30 34 50 65 83 103 139 166 230 246 408 435 660 792 1188 1408 1958 2783 0
3 7 11 15 31 35 51 66 84 104 140 167 231 247 409 436 661 793 1189 1409 1959 2784 0
1 8 12 16 23 36 52 67 85 105 141 168 232 248 410 437 662 794 1190 1410 1960 2785 0
2 4 13 17 24 37 53 68 86 106 142 169 233 249 411 438 663 795 1191 1411 1961 2786 0
3 5 14 18 25 38 54 69 87 107 143 170 234 250 412 439 664 796 1192 1412 1962 2787 0
1 6 9 19 26 39 55 70 88 108 144 171 235 251 413 440 665 797 1193 1413 1963 2788 0
2 7 10 20 27 40 56 71 89 109 145 172 236 252 414 441 666 798 1194 1414 1964 2789 0
3 8 11 21 28 41 57 72 90 110 146 173 237 253 415 442 667 799 1195 1415 1965 2790 0
1 4 12 22 29 42 43 73 91 111 147 174 238 254 416 443 668 800 1196 1416 1966 2791 0
2 5 13 15 30 32 44 74 92 112 148 175 195 255 417 444 669 801 1197 1417 1967 2792 0
3 6 14 16 31 33 45 75 93 113 149 176 196 256 418 445 670 802 1198 1418 1968 2793 0
1 7 9 17 23 34 46 58 94 114 150 177 197 257 419 446 671 803 1199 1419 1969 2794 0
2 8 10 18 24 35 47 59 95 115 151 178 198 258 420 447 672 804 1200 1420 1970 2795 0
3 4 11 19 25 36 48 60 76 116 152 179 199 259 421 448 673 805 1201 1421 1971 2796 0
1 5 12 20 26 37 49 61 77 117 153 180 200 260 422 449 674 806 1202 1422 1972 2797 0
2 6 13 21 27 38 50 62 78 118 154 181 201 261 423 450 675 807 1203 1423 1973 2798 0
3 7 14 22 28 39 51 63 79 119 155 182 202 262 424 451 676 808 1204 1424 1974 2799 0
1 8 9 15 29 40 52 64 80 120 156 183 203 263 425 452 677 809 1205 1425 1975 2800 0
2 4 10 16 30 41 53 65 81 121 157 184 204 264 426 453 678 810 1206 1426 1976 2801 0
3 5 11 17 31 42 54 66 82 122 158 185 205 265 427 454 679 811 1207 1427 1977 2802 0
1 6 12 18 23 32 55 67 83 123 126 186 206 266 329 455 680 812 1208 1428 1978 2803 0
2 7 13 19 24 33 56 68 84 124 127 187 207 267 330 456 681 813 1209 1429 1979 2804 0
3 8 14 20 25 34 57 69 85 125 128 188 208 268 331 457 682 814 1210 1430 1980 2805 0
1 4 9 21 26 35 43 70 86 96 129 189 209 269 332 458 683 815 1211 1431 1981 2806 0
2 5 10 22 27 36 44 71 87 97 130 190 210 270 333 459 684 816 1212 1432 1982 2807 0
3 6 11 15 28 37 45 72 88 98 131 191 211 271 334 460 685 817 1213 1433 1983 2808 0
1 7 12 16 29 38 46 73 89 99 132 192 212 272 335 461 686 818 1214 1434 1984 2809 0
2 8 13 17 30 39 47 74 90 100 133 193 213 273 336 462 687 819 1215 1435 1985 2810 0
3 4 14 18 31 40 48 75 91 101 134 194 214 274 337 463 688 820 1216 1436 1986 2811 0
1 5 9 19 23 41 49 58 92 102 135 159 215 275 338 464 689 821 1217 1437 1987 2812 0
2 6 10 20 24 42 50 59 93 103 136 160 216 276 339 465 690 822 1218 1438 1988 2813 0
3 7 11 21 25 32 51 60 94 104 137 161 217 277 340 466 691 823 1219 1439 1989 2814 0
1 8 12 22 26 33 52 61 95 105 138 162 218 278 341 467 692 824 1220 1440 1990 2815 0
2 4 13 15 27 34 53 62 76 106 139 163 219 279 342 468 693 825 1221 1441 1991 2816 0
3 5 14 16 28 35 54 63 77 107 140 164 220 280 343 469 694 826 1222 1442 1992 2817 0
1 6 9 17 29 36 55 64 78 108 141 165 221 281 344 470 695 827 1223 1443 1993 2818 0
2 7 10 18 30 37 56 65 79 109 142 166 222 282 345 471 696 828 1224 1444 1994 2819 0
3 8 11 19 31 38 57 66 80 110 143 167 223 283 346 472 697 829 1225 1445 1995 2820 0
1 4 12 20 23 39 43 67 81 111 144 168 224 284 347 473 698 830 1226 1446 1996 2821 0
2 5 13 21 24 40 44 68 82 112 145 169 225 285 348 474 699 831 1227 1447 1997 2822 0
3 6 14 22 25 41 45 69 83 113 146 170 226 286 349 475 700 832 1228 1448 1998 2823 0
1 7 9 15 26 42 46 70 84 114 147 171 227 287 350 476 701 833 1229 1449 1999 2824 0
2 8 10 16 27 32 47 71 85 115 148 172 228 288 351 477 702 834 1230 1450 2000 2825 0
3 4 11 17 28 33 48 72 86 116 149 173 229 289 352 478 703 835 1231 1451 2001 2826 0
1 5 12 18 29 34 49 73 87 117 150 174 230 290 353 479 704 836 1232 1452 2002 2827 0
2 6 13 19 30 35 50 74 88 118 151 175 231 291 354 480 705 837 1233 1453 2003 2828 0
3 7 14 20 31 36 51 75 89 119 152 176 232 292 355 481 706 838 1234 1454 2004 2829 0
1 8 9 21 23 37 52 58 90 120 153 177 233 293 356 482 707 839 1235 1455 2005 2830 0
2 4 10 22 24 38 53 59 91 121 154 178 234 294 357 483 708 840 1236 1456 2006 2831 0
3 5 11 15 25 39 54 60 92 122 155 179 235 295 358 484 709 841 1237 1457 2007 2832 0
1 6 12 16 26 40 55 61 93 123 156 180 236 296 359 485 710 842 1238 1458 2008 2833 0
2 7 13 17 27 41 56 62 94 124 157 181 237 297 360 486 711 843 1239 1459 2009 2834 0
3 8 14 18 28 42 57 63 95 125 158 182 238 298 361 487 712 844 1240 1460 2010 2835 0
1 4 9 19 29 32 43 64 76 96 126 183 195 299 362 488 548 845 911 1461 2011 2176 0
2 5 10 20 30 33 44 65 77 97 127 184 196 300 363 489 549 846 912 1462 2012 2177 0
3 6 11 21 31 34 45 66 78 98 128 185 197 301 364 490 550 847 913 1463 2013 2178 0
1 7 12 22 23 35 46 67 79 99 129 186 198 302 365 491 551 848 914 1464 2014 2179 0
2 8 13 15 24 36 47 68 80 100 130 187 199 303 366 492 552 849 915 1465 2015 2180 0
3 4 14 16 25 37 48 69 81 101 131 188 200 304 367 493 553 850 916 1466 2016 2181 0
1 5 9 17 26 38 49 70 82 102 132 189 201 305 368 494 554 851 917 1467 2017 2182 0
2 6 10 18 27 39 50 71 83 103 133 190 202 306 369 495 555 852 918 1468 2018 2183 0
3 7 11 19 28 40 51 72 84 104 134 191 203 307 370 496 556 853 919 1469 2019 2184 0
1 8 12 20 29 41 52 73 85 105 135 192 204 308 371 497 557 854 920 1470 2020 2185 0
2 4 13 21 30 42 53 74 86 106 136 193 205 309 372 498 558 855 921 1471 2021 2186 0
3 5 14 22 31 32 54 75 87 107 137 194 206 310 373 499 559 856 922 1472 2022 2187 0
1 6 9 15 23 33 55 58 88 108 138 159 207 311 374 500 560 857 923 1473 2023 2188 0
2 7 10 16 24 34 56 59 89 109 139 160 208 312 375 501 561 858 924 1474 2024 2189 0
3 8 11 17 25 35 57 60 90 110 140 161 209 313 376 502 562 859 925 1475 2025 2190 0
1 4 12 18 26 36 43 61 91 111 141 162 210 314 377 503 563 860 926 1476 2026 2191 0
2 5 13 19 27 37 44 62 92 112 142 163 211 315 378 504 564 861 927 1477 2027 2192 0
3 6 14 20 28 38 45 63 93 113 143 164 212 316 379 505 565 862 928 1478 2028 2193 0
1 7 9 21 29 39 46 64 94 114 144 165 213 317 380 506 566 863 929 1479 2029 2194 0
2 8 10 22 30 40 47 65 95 115 145 166 214 318 381 507 567 864 930 1480 2030 2195 0
3 4 11 15 31 41 48 66 76 116 146 167 215 319 382 508 568 865 931 1481 2031 2196 0
1 5 12 16 23 42 49 67 77 117 147 168 216 320 383 509 569 866 932 1482 2032 2197 0
2 6 13 17 24 32 50 68 78 118 148 169 217 321 384 510 570 867 933 1483 2033 2198 0
3 7 14 18 25 33 51 69 79 119 149 170 218 322 385 511 571 868 934 1484 2034 2199 0
1 8 9 19 26 34 52 70 80 120 150 171 219 323 386 512 572 869 935 1485 2035 2200 0
2 4 10 20 27 35 53 71 81 121 151 172 220 324 387 513 573 870 936 1486 2036 2201 0
3 5 11 21 28 36 54 72 82 122 152 173 221 325 388 514 574 871 937 1487 2037 2202 0
1 6 12 22 29 37 55 73 83 123 153 174 222 326 389 515 575 872 938 1488 2038 2203 0
2 7 13 15 30 38 56 74 84 124 154 175 223 327 390 516 576 873 939 1489 2039 2204 0
3 8 14 16 31 39 57 75 85 125 155 176 224 328 391 517 577 874 940 1490 2040 2205 0
1 4 9 17 23 40 43 58 86 96 156 177 225 239 392 518 578 875 941 1491 2041 2206 0
2 5 10 18 24 41 44 59 87 97 157 178 226 240 393 519 579 876 942 1492 2042 2207 0
3 6 11 19 25 42 45 60 88 98 158 179 227 241 394 520 580 877 943 1493 2043 2208 0
1 7 12 20 26 32 46 61 89 99 126 180 228 242 395 521 581 878 944 1494 2044 2209 0
2 8 13 21 27 33 47 62 90 100 127 181 229 243 396 522 582 879 945 1495 2045 2210 0
3 4 14 22 28 34 48 63 91 101 128 182 230 244 397 523 583 880 946 1496 2046 2211 0
1 5 9 15 29 35 49 64 92 102 129 183 231 245 398 524 584 881 947 1497 2047 2212 0
2 6 10 16 30 36 50 65 93 103 130 184 232 246 399 525 585 882 948 1498 2048 2213 0
3 7 11 17 31 37 51 66 94 104 131 185 233 247 400 526 586 883 949 1499 2049 2214 0
1 8 12 18 23 38 52 67 95 105 132 186 234 248 401 527 587 884 950 1500 2050 2215 0
2 4 13 19 24 39 53 68 76 106 133 187 235 249 402 528 588 885 951 1501 2051 2216 0
3 5 14 20 25 40 54 69 77 107 134 188 236 250 403 529 589 886 952 1502 2052 2217 0
1 6 9 21 26 41 55 70 78 108 135 189 237 251 404 530 590 887 953 1503 2053 2218 0
2 7 10 22 27 42 56 71 79 109 136 190 238 252 405 531 591 888 954 1504 2054 2219 0
3 8 11 15 28 32 57 72 80 110 137 191 195 253 406 532 592 889 955 1505 2055 2220 0
1 4 12 16 29 33 43 73 81 111 138 192 196 254 407 533 593 890 956 1506 2056 2221 0
2 5 13 17 30 34 44 74 82 112 139 193 197 255 408 534 594 891 957 1507 2057 2222 0
3 6 14 18 31 35 45 75 83 113 140 194 198 256 409 535 595 892 958 1508 2058 2223 0
1 7 9 19 23 36 46 58 84 114 141 159 199 257 410 536 596 893 959 1509 2059 2224 0
2 8 10 20 24 37 47 59 85 115 142 160 200 258 411 537 597 894 960 1510 2060 2225 0
3 4 11 21 25 38 48 60 86 116 143 161 201 259 412 538 598 895 961 1511 2061 2226 0
1 5 12 22 26 39 49 61 87 117 144 162 202 260 413 539 599 896 962 1512 2062 2227 0
2 6 13 15 27 40 50 62 88 118 145 163 203 261 414 540 600 897 963 1513 2063 2228 0
3 7 14 16 28 41 51 63 89 119 146 164 204 262 415 541 601 898 964 1514 2064 2229 0
1 8 9 17 29 42 52 64 90 120 147 165 205 263 416 542 602 899 965 1515 2065 2230 0
2 4 10 18 30 32 53 65 91 121 148 166 206 264 417 543 603 900 966 1516 2066 2231 0
3 5 11 19 31 33 54 66 92 122 149 167 207 265 418 544 604 901 967 1517 2067 2232 0
1 6 12 20 23 34 55 67 93 123 150 168 208 266 419 545 605 902 968 1518 2068 2233 0
2 7 13 21 24 35 56 68 94 124 151 169 209 267 420 546 606 903 969 1519 2069 2234 0
3 8 14 22 25 36 57 69 95 125 152 170 210 268 421 547 607 904 970 1520 2070 2235 0
1 4 9 15 26 37 43 70 76 96 153 171 211 269 422 428 608 905 971 1521 2071 2236 0
2 5 10 16 27 38 44 71 77 97 154 172 212 270 423 429 609 906 972 1522 2072 2237 0
3 6 11 17 28 39 45 72 78 98 155 173 213 271 424 430 610 907 973 1523 2073 2238 0
1 7 12 18 29 40 46 73 79 99 156 174 214 272 425 431 611 908 974 1524 2074 2239 0
2 8 13 19 30 41 47 74 80 100 157 175 215 273 426 432 612 909 975 1525 2075 2240 0
3 4 14 20 31 42 48 75 81 101 158 176 216 274 427 433 613 910 976 1526 2076 2241 0
1 5 9 21 23 32 49 58 82 102 126 177 217 275 329 434 614 713 977 1527 2077 2242 0
2 6 10 22 24 33 50 59 83 103 127 178 218 276 330 435 615 714 978 1528 2078 2243 0
3 7 11 15 25 34 51 60 84 104 128 179 219 277 331 436 616 715 979 1529 2079 2244 0
1 8 12 16 26 35 52 61 85 105 129 180 220 278 332 437 617 716 980 1530 2080 2245 0
2 4 13 17 27 36 53 62 86 106 130 181 221 279 333 438 618 717 981 1531 2081 2246 0
3 5 14 18 28 37 54 63 87 107 131 182 222 280 334 439 619 718 982 1532 2082 2247 0
1 6 9 19 29 38 55 64 88 108 132 183 223 281 335 440 620 719 983 1533 2083 2248 0
2 7 10 20 30 39 56 65 89 109 133 184 224 282 336 441 621 720 984 1534 2084 2249 0
3 8 11 21 31 40 57 66 90 110 134 185 225 283 337 442 622 721 985 1535 2085 2250 0
1 4 12 22 23 41 43 67 91 111 135 186 226 284 338 443 623 722 986 1536 2086 2251 0
2 5 13 15 24 42 44 68 92 112 136 187 227 285 339 444 624 723 987 1537 2087 2252 0
3 6 14 16 25 32 45 69 93 113 137 188 228 286 340 445 625 724 988 1538 2088 2253 0
1 7 9 17 26 33 46 70 94 114 138 189 229 287 341 446 626 725 989 1539 2089 2254 0
2 8 10 18 27 34 47 71 95 115 139 190 230 288 342 447 627 726 990 1540 2090 2255 0
3 4 11 19 28 35 48 72 76 116 140 191 231 289 343 448 628 727 991 1541 2091 2256 0
1 5 12 20 29 36 49 73 77 117 141 192 232 290 344 449 629 728 992 1542 2092 2257 0
2 6 13 21 30 37 50 74 78 118 142 193 233 291 345 450 630 729 993 1543 2093 2258 0
3 7 14 22 31 38 51 75 79 119 143 194 234 292 346 451 631 730 994 1544 2094 2259 0
1 8 9 15 23 39 52 58 80 120 144 159 235 293 347 452 632 731 995 1545 2095 2260 0
2 4 10 16 24 40 53 59 81 121 145 160 236 294 348 453 633 732 996 1546 2096 2261 0
3 5 11 17 25 41 54 60 82 122 146 161 237 295 349 454 634 733 997 1547 2097 2262 0
1 6 12 18 26 42 55 61 83 123 147 162 238 296 350 455 635 734 998 1548 2098 2263 0
2 7 13 19 27 32 56 62 84 124 148 163 195 297 351 456 636 735 999 1549 2099 2264 0
3 8 14 20 28 33 57 63 85 125 149 164 196 298 352 457 637 736 1000 1550 2100 2265 0
1 4 9 21 29 34 43 64 86 96 150 165 197 299 353 458 638 737 1001 1551 2101 2266 0
2 5 10 22 30 35 44 65 87 97 151 166 198 300 354 459 639 738 1002 1552 2102 2267 0
3 6 11 15 31 36 45 66 88 98 152 167 199 301 355 460 640 739 1003 1553 2103 2268 0
1 7 12 16 23 37 46 67 89 99 153 168 200 302 356 461 641 740 1004 1554 2104 2269 0
2 8 13 17 24 38 47 68 90 100 154 169 201 303 357 462 642 741 1005 1555 2105 2270 0
3 4 14 18 25 39 48 69 91 101 155 170 202 304 358 463 643 742 1006 1556 2106 2271 0
1 5 9 19 26 40 49 70 92 102 156 171 203 305 359 464 644 743 1007 1557 2107 2272 0
2 6 10 20 27 41 50 71 93 103 157 172 204 306 360 465 645 744 1008 1558 2108 2273 0
3 7 11 21 28 42 51 72 94 104 158 173 205 307 361 466 646 745 1009 1559 2109 2274 0
1 8 12 22 29 32 52 73 95 105 126 174 206 308 362 467 647 746 1010 1560 2110 2275 0
2 4 13 15 30 33 53 74 76 106 127 175 207 309 363 468 648 747 1011 1561 2111 2276 0
3 5 14 16 31 34 54 75 77 107 128 176 208 310 364 469 649 748 1012 1562 2112 2277 0
1 6 9 17 23 35 55 58 78 108 129 177 209 311 365 470 650 749 1013 1563 2113 2278 0
2 7 10 18 24 36 56 59 79 109 130 178 210 312 366 471 651 750 1014 1564 2114 2279 0
3 8 11 19 25 37 57 60 80 110 131 179 211 313 367 472 652 751 1015 1565 2115 2280 0
1 4 12 20 26 38 43 61 81 111 132 180 212 314 368 473 653 752 1016 1566 2116 2281 0
2 5 13 21 27 39 44 62 82 112 133 181 213 315 369 474 654 753 1017 1567 2117 2282 0
3 6 14 22 28 40 45 63 83 113 134 182 214 316 370 475 655 754 1018 1568 2118 2283 0
1 7 9 15 29 41 46 64 84 114 135 183 215 317 371 476 656 755 1019 1569 2119 2284 0
2 8 10 16 30 42 47 65 85 115 136 184 216 318 372 477 657 756 1020 1570 2120 2285 0
3 4 11 17 31 32 48 66 86 116 137 185 217 319 373 478 658 757 1021 1571 2121 2286 0
1 5 12 18 23 33 49 67 87 117 138 186 218 320 374 479 659 758 1022 1572 2122 2287 0
2 6 13 19 24 34 50 68 88 118 139 187 219 321 375 480 660 759 1023 1573 2123 2288 0
3 7 14 20 25 35 51 69 89 119 140 188 220 322 376 481 661 760 1024 1574 2124 2289 0
1 8 9 21 26 36 52 70 90 120 141 189 221 323 377 482 662 761 1025 1575 2125 2290 0
2 4 10 22 27 37 53 71 91 121 142 190 222 324 378 483 663 762 1026 1576 2126 2291 0
3 5 11 15 28 38 54 72 92 122 143 191 223 325 379 484 664 763 1027 1577 2127 2292 0
1 6 12 16 29 39 55 73 93 123 144 192 224 326 380 485 665 764 1028 1578 2128 2293 0
2 7 13 17 30 40 56 74 94 124 145 193 225 327 381 486 666 765 1029 1579 2129 2294 0
3 8 14 18 31 41 57 75 95 125 146 194 226 328 382 487 667 766 1030 1580 2130 2295 0
1 4 9 19 23 42 43 58 76 96 147 159 227 239 383 488 668 767 1031 1581 2131 2296 0
2 5 10 20 24 32 44 59 77 97 148 160 228 240 384 489 669 768 1032 1582 2132 2297 0
3 6 11 21 25 33 45 60 78 98 149 161 229 241 385 490 670 769 1033 1583 2133 2298 0
1 7 12 22 26 34 46 61 79 99 150 162 230 242 386 491 671 770 1034 1584 2134 2299 0
2 8 13 15 27 35 47 62 80 100 151 163 231 243 387 492 672 771 1035 1585 2135 2300 0
3 4 14 16 28 36 48 63 81 101 152 164 232 244 388 493 673 772 1036 1586 2136 2301 0
1 5 9 17 29 37 49 64 82 102 153 165 233 245 389 494 674 773 1037 1587 2137 2302 0
2 6 10 18 30 38 50 65 83 103 154 166 234 246 390 495 675 774 1038 1588 2138 2303 0
3 7 11 19 31 39 51 66 84 104 155 167 235 247 391 496 676 775 1039 1589 2139 2304 0
1 8 12 20 23 40 52 67 85 105 156 168 236 248 392 497 677 776 1040 1590 2140 2305 0
2 4 13 21 24 41 53 68 86 106 157 169 237 249 393 498 678 777 1041 1591 2141 2306 0
3 5 14 22 25 42 54 69 87 107 158 170 238 250 394 499 679 778 1042 1592 2142 2307 0
1 6 9 15 26 32 55 70 88 108 126 171 195 251 395 500 680 779 1043 1593 2143 2308 0
2 7 10 16 27 33 56 71 89 109 127 172 196 252 396 501 681 780 1044 1594 2144 2309 0
3 8 11 17 28 34 57 72 90 110 128 173 197 253 397 502 682 781 1045 1595 2145 2310 0
1 4 12 18 29 35 43 73 91 111 129 174 198 254 398 503 683 782 1046 1596 2146 2311 0
2 5 13 19 30 36 44 74 92 112 130 175 199 255 399 504 684 783 1047 1597 2147 2312 0
3 6 14 20 31 37 45 75 93 113 131 176 200 256 400 505 685 784 1048 1598 2148 2313 0
1 7 9 21 23 38 46 58 94 114 132 177 201 257 401 506 686 785 1049 1599 2149 2314 0
2 8 10 22 24 39 47 59 95 115 133 178 202 258 402 507 687 786 1050 1600 2150 2315 0
3 4 11 15 25 40 48 60 76 116 134 179 203 259 403 508 688 787 1051 1601 2151 2316 0
1 5 12 16 26 41 49 61 77 117 135 180 204 260 404 509 689 788 1052 1602 2152 2317 0
2 6 13 17 27 42 50 62 78 118 136 181 205 261 405 510 690 789 1053 1603 2153 2318 0
3 7 14 18 28 32 51 63 79 119 137 182 206 262 406 511 691 790 1054 1604 2154 2319 0
1 8 9 19 29 33 52 64 80 120 138 183 207 263 407 512 692 791 1055 1605 2155 2320 0
2 4 10 20 30 34 53 65 81 121 139 184 208 264 408 513 693 792 1056 1606 2156 2321 0
3 5 11 21 31 35 54 66 82 122 140 185 209 265 409 514 694 793 1057 1607 2157 2322 0
1 6 12 22 23 36 55 67 83 123 141 186 210 266 410 515 695 794 1058 1608 2158 2323 0
2 7 13 15 24 37 56 68 84 124 142 187 211 267 411 516 696 795 1059 1609 2159 2324 0
3 8 14 16 25 38 57 69 85 125 143 188 212 268 412 517 697 796 1060 1610 2160 2325 0
1 4 9 17 26 39 43 70 86 96 144 189 213 269 413 518 698 797 1061 1611 2161 2326 0
2 5 10 18 27 40 44 71 87 97 145 190 214 270 414 519 699 798 1062 1612 2162 2327 0
3 6 11 19 28 41 45 72 88 98 146 191 215 271 415 520 700 799 1063 1613 2163 2328 0
1 7 12 20 29 42 46 73 89 99 147 192 216 272 416 521 701 800 1064 1614 2164 2329 0
2 8 13 21 30 32 47 74 90 100 148 193 217 273 417 522 702 801 1065 1615 2165 2330 0
3 4 14 22 31 33 48 75 91 101 149 194 218 274 418 523 703 802 1066 1616 2166 2331 0
1 5 9 15 23 34 49 58 92 102 150 159 219 275 419 524 704 803 1067 1617 2167 2332 0
2 6 10 16 24 35 50 59 93 103 151 160 220 276 420 525 705 804 1068 1618 2168 2333 0
3 7 11 17 25 36 51 60 94 104 152 161 221 277 421 526 706 805 1069 1619 2169 2334 0
1 8 12 18 26 37 52 61 95 105 153 162 222 278 422 527 707 806 1070 1620 2170 2335 0
2 4 13 19 27 38 53 62 76 106 154 163 223 279 423 528 708 807 1071 1621 2171 2336 0
3 5 14 20 28 39 54 63 77 107 155 164 224 280 424 529 709 808 1072 1622 2172 2337 0
1 6 9 21 29 40 55 64 78 108 156 165 225 281 425 530 710 809 1073 1623 2173 2338 0
2 7 10 22 30 41 56 65 79 109 157 166 226 282 426 531 711 810 1074 1624 2174 2339 0
3 8 11 15 31 42 57 66 80 110 158 167 227 283 427 532 712 811 1075 1625 2175 2340 0
1 4 12 16 23 32 43 67 81 111 126 168 228 284 329 533 548 812 1076 1626 1681 2341 0
2 5 13 17 24 33 44 68 82 112 127 169 229 285 330 534 549 813 1077 1627 1682 2342 0
3 6 14 18 25 34 45 69 83 113 128 170 230 286 331 535 550 814 1078 1628 1683 2343 0
1 7 9 19 26 35 46 70 84 114 129 171 231 287 332 536 551 815 1079 1629 1684 2344 0
2 8 10 20 27 36 47 71 85 115 130 172 232 288 333 537 552 816 1080 1630 1685 2345 0
3 4 11 21 28 37 48 72 86 116 131 173 233 289 334 538 553 817 1081 1631 1686 2346 0
1 5 12 22 29 38 49 73 87 117 132 174 234 290 335 539 554 818 1082 1632 1687 2347 0
2 6 13 15 30 39 50 74 88 118 133 175 235 291 336 540 555 819 1083 1633 1688 2348 0
3 7 14 16 31 40 51 75 89 119 134 176 236 292 337 541 556 820 1084 1634 1689 2349 0
1 8 9 17 23 41 52 58 90 120 135 177 237 293 338 542 557 821 1085 1635 1690 2350 0
2 4 10 18 24 42 53 59 91 121 136 178 238 294 339 543 558 822 1086 1636 1691 2351 0
3 5 11 19 25 32 54 60 92 122 137 179 195 295 340 544 559 823 1087 1637 1692 2352 0
1 6 12 20 26 33 55 61 93 123 138 180 196 296 341 545 560 824 1088 1638 1693 2353 0
2 7 13 21 27 34 56 62 94 124 139 181 197 297 342 546 561 825 1089 1639 1694 2354 0
3 8 14 22 28 35 57 63 95 125 140 182 198 298 343 547 562 826 1090 1640 1695 2355 0
1 4 9 15 29 36 43 64 76 96 141 183 199 299 344 428 563 827 1091 1641 1696 2356 0
2 5 10 16 30 37 44 65 77 97 142 184 200 300 345 429 564 828 1092 1642 1697 2357 0
3 6 11 17 31 38 45 66 78 98 143 185 201 301 346 430 565 829 1093 1643 1698 2358 0
1 7 12 18 23 39 46 67 79 99 144 186 202 302 347 431 566 830 1094 1644 1699 2359 0
2 8 13 19 24 40 47 68 80 100 145 187 203 303 348 432 567 831 1095 1645 1700 2360 0
3 4 14 20 25 41 48 69 81 101 146 188 204 304 349 433 568 832 1096 1646 1701 2361 0
1 5 9 21 26 42 49 70 82 102 147 189 205 305 350 434 569 833 1097 1647 1702 2362 0
2 6 10 22 27 32 50 71 83 103 148 190 206 306 351 435 570 834 1098 1648 1703 2363 0
3 7 11 15 28 33 51 72 84 104 149 191 207 307 352 436 571 835 1099 1649 1704 2364 0
1 8 12 16 29 34 52 73 85 105 150 192 208 308 353 437 572 836 1100 1650 1705 2365 0
2 4 13 17 30 35 53 74 86 106 151 193 209 309 354 438 573 837 1101 1651 1706 2366 0
3 5 14 18 31 36 54 75 87 107 152 194 210 310 355 439 574 838 1102 1652 1707 2367 0
1 6 9 19 23 37 55 58 88 108 153 159 211 311 356 440 575 839 1103 1653 1708 2368 0
2 7 10 20 24 38 56 59 89 109 154 160 212 312 357 441 576 840 1104 1654 1709 2369 0
3 8 11 21 25 39 57 60 90 110 155 161 213 313 358 442 577 841 1105 1655 1710 2370 0
1 4 12 22 26 40 43 61 91 111 156 162 214 314 359 443 578 842 1106 1656 1711 2371 0
2 5 13 15 27 41 44 62 92 112 157 163 215 315 360 444 579 843 1107 1657 1712 2372 0
3 6 14 16 28 42 45 63 93 113 158 164 216 316 361 445 580 844 1108 1658 1713 2373 0
1 7 9 17 29 32 46 64 94 114 126 165 217 317 362 446 581 845 1109 1659 1714 2374 0
2 8 10 18 30 33 47 65 95 115 127 166 218 318 363 447 582 846 1110 1660 1715 2375 0
3 4 11 19 31 34 48 66 76 116 128 167 219 319 364 448 583 847 1111 1661 1716 2376 0
1 5 12 20 23 35 49 67 77 117 129 168 220 320 365 449 584 848 1112 1662 1717 2377 0
2 6 13 21 24 36 50 68 78 118 130 169 221 321 366 450 585 849 1113 1663 1718 2378 0
3 7 14 22 25 37 51 69 79 119 131 170 222 322 367 451 586 850 1114 1664 1719 2379 0
1 8 9 15 26 38 52 70 80 120 132 171 223 323 368 452 587 851 1115 1665 1720 2380 0
2 4 10 16 27 39 53 71 81 121 133 172 224 324 369 453 588 852 1116 1666 1721 2381 0
3 5 11 17 28 40 54 72 82 122 134 173 225 325 370 454 589 853 1117 1667 1722 2382 0
1 6 12 18 29 41 55 73 83 123 135 174 226 326 371 455 590 854 1118 1668 1723 2383 0
2 7 13 19 30 42 56 74 84 124 136 175 227 327 372 456 591 855 1119 1669 1724 2384 0
3 8 14 20 31 32 57 75 85 125 137 176 228 328 373 457 592 856 1120 1670 1725 2385 0
1 4 9 21 23 33 43 58 86 96 138 177 229 239 374 458 593 857 1121 1671 1726 2386 0
2 5 10 22 24 34 44 59 87 97 139 178 230 240 375 459 594 858 1122 1672 1727 2387 0
3 6 11 15 25 35 45 60 88 98 140 179 231 241 376 460 595 859 1123 1673 1728 2388 0
1 7 12 16 26 36 46 61 89 99 141 180 232 242 377 461 596 860 1124 1674 1729 2389 0
2 8 13 17 27 37 47 62 90 100 142 181 233 243 378 462 597 861 1125 1675 1730 2390 0
3 4 14 18 28 38 48 63 91 101 143 182 234 244 379 463 598 862 1126 1676 1731 2391 0
1 5 9 19 29 39 49 64 92 102 144 183 235 245 380 464 599 863 1127 1677 1732 2392 0
2 6 10 20 30 40 50 65 93 103 145 184 236 246 381 465 600 864 1128 1678 1733 2393 0
3 7 11 21 31 41 51 66 94 104 146 185 237 247 382 466 601 865 1129 1679 1734 2394 0
1 8 12 22 23 42 52 67 95 105 147 186 238 248 383 467 602 866 1130 1680 1735 2395 0
2 4 13 15 24 32 53 68 76 106 148 187 195 249 384 468 603 867 1131 1241 1736 2396 0
3 5 14 16 25 33 54 69 77 107 149 188 196 250 385 469 604 868 1132 1242 1737 2397 0
1 6 9 17 26 34 55 70 78 108 150 189 197 251 386 470 605 869 1133 1243 1738 2398 0
2 7 10 18 27 35 56 71 79 109 151 190 198 252 387 471 606 870 1134 1244 1739 2399 0
3 8 11 19 28 36 57 72 80 110 152 191 199 253 388 472 607 871 1135 1245 1740 2400 0
1 4 12 20 29 37 43 73 81 111 153 192 200 254 389 473 608 872 1136 1246 1741 2401 0
2 5 13 21 30 38 44 74 82 112 154 193 201 255 390 474 609 873 1137 1247 1742 2402 0
3 6 14 22 31 39 45 75 83 113 155 194 202 256 391 475 610 874 1138 1248 1743 2403 0
1 7 9 15 23 40 46 58 84 114 156 159 203 257 392 476 611 875 1139 1249 1744 2404 0
2 8 10 16 24 41 47 59 85 115 157 160 204 258 393 477 612 876 1140 1250 1745 2405 0
3 4 11 17 25 42 48 60 86 116 158 161 205 259 394 478 613 877 1141 1251 1746 2406 0
1 5 12 18 26 32 49 61 87 117 126 162 206 260 395 479 614 878 1142 1252 1747 2407 0
2 6 13 19 27 33 50 62 88 118 127 163 207 261 396 480 615 879 1143 1253 1748 2408 0
3 7 14 20 28 34 51 63 89 119 128 164 208 262 397 481 616 880 1144 1254 1749 2409 0
1 8 9 21 29 35 52 64 90 120 129 165 209 263 398 482 617 881 1145 1255 1750 2410 0
2 4 10 22 30 36 53 65 91 121 130 166 210 264 399 483 618 882 1146 1256 1751 2411 0
3 5 11 15 31 37 54 66 92 122 131 167 211 265 400 484 619 883 1147 1257 1752 2412 0
1 6 12 16 23 38 55 67 93 123 132 168 212 266 401 485 620 884 1148 1258 1753 2413 0
2 7 13 17 24 39 56 68 94 124 133 169 213 267 402 486 621 885 1149 1259 1754 2414 0
3 8 14 18 25 40 57 69 95 125 134 170 214 268 403 487 622 886 1150 1260 1755 2415 0
1 4 9 19 26 41 43 70 76 96 135 171 215 269 404 488 623 887 1151 1261 1756 2416 0
2 5 10 20 27 42 44 71 77 97 136 172 216 270 405 489 624 888 1152 1262 1757 2417 0
3 6 11 21 28 32 45 72 78 98 137 173 217 271 406 490 625 889 1153 1263 1758 2418 0
1 7 12 22 29 33 46 73 79 99 138 174 218 272 407 491 626 890 1154 1264 1759 2419 0
2 8 13 15 30 34 47 74 80 100 139 175 219 273 408 492 627 891 1155 1265 1760 2420 0
3 4 14 16 31 35 48 75 81 101 140 176 220 274 409 493 628 892 1156 1266 1761 2421 0
1 5 9 17 23 36 49 58 82 102 141 177 221 275 410 494 629 893 1157 1267 1762 2422 0
2 6 10 18 24 37 50 59 83 103 142 178 222 276 411 495 630 894 1158 1268 1763 2423 0
3 7 11 19 25 38 51 60 84 104 143 179 223 277 412 496 631 895 1159 1269 1764 2424 0
1 8 12 20 26 39 52 61 85 105 144 180 224 278 413 497 632 896 1160 1270 1765 2425 0
2 4 13 21 27 40 53 62 86 106 145 181 225 279 414 498 633 897 1161 1271 1766 2426 0
3 5 14 22 28 41 54 63 87 107 146 182 226 280 415 499 634 898 1162 1272 1767 2427 0
1 6 9 15 29 42 55 64 88 108 147 183 227 281 416 500 635 899 1163 1273 1768 2428 0
2 7 10 16 30 32 56 65 89 109 148 184 228 282 417 501 636 900 1164 1274 1769 2429 0
3 8 11 17 31 33 57 66 90 110 149 185 229 283 418 502 637 901 1165 1275 1770 2430 0
1 4 12 18 23 34 43 67 91 111 150 186 230 284 419 503 638 902 1166 1276 1771 2431 0
2 5 13 19 24 35 44 68 92 112 151 187 231 285 420 504 639 903 1167 1277 1772 2432 0
3 6 14 20 25 36 45 69 93 113 152 188 232 286 421 505 640 904 1168 1278 1773 2433 0
1 7 9 21 26 37 46 70 94 114 153 189 233 287 422 506 641 905 1169 1279 1774 2434 0
2 8 10 22 27 38 47 71 95 115 154 190 234 288 423 507 642 906 1170 1280 1775 2435 0
3 4 11 15 28 39 48 72 76 116 155 191 235 289 424 508 643 907 1171 1281 1776 2436 0
1 5 12 16 29 40 49 73 77 117 156 192 236 290 425 509 644 908 1172 1282 1777 2437 0
2 6 13 17 30 41 50 74 78 118 157 193 237 291 426 510 645 909 1173 1283 1778 2438 0
3 7 14 18 31 42 51 75 79 119 158 194 238 292 427 511 646 910 1174 1284 1779 2439 0
1 8 9 19 23 32 52 58 80 120 126 159 195 293 329 512 647 713 1175 1285 1780 2440 0
2 4 10 20 24 33 53 59 81 121 127 160 196 294 330 513 648 714 1176 1286 1781 2441 0
3 5 11 21 25 34 54 60 82 122 128 161 197 295 331 514 649 715 1177 1287 1782 2442 0
1 6 12 22 26 35 55 61 83 123 129 162 198 296 332 515 650 716 1178 1288 1783 2443 0
2 7 13 15 27 36 56 62 84 124 130 163 199 297 333 516 651 717 1179 1289 1784 2444 0
3 8 14 16 28 37 57 63 85 125 131 164 200 298 334 517 652 718 1180 1290 1785 2445 0
1 4 9 17 29 38 43 64 86 96 132 165 201 299 335 518 653 719 1181 1291 1786 2446 0
2 5 10 18 30 39 44 65 87 97 133 166 202 300 336 519 654 720 1182 1292 1787 2447 0
3 6 11 19 31 40 45 66 88 98 134 167 203 301 337 520 655 721 1183 1293 1788 2448 0
1 7 12 20 23 41 46 67 89 99 135 168 204 302 338 521 656 722 1184 1294 1789 2449 0
2 8 13 21 24 42 47 68 90 100 136 169 205 303 339 522 657 723 1185 1295 1790 2450 0
3 4 14 22 25 32 48 69 91 101 137 170 206 304 340 523 658 724 1186 1296 1791 2451 0
1 5 9 15 26 33 49 70 92 102 138 171 207 305 341 524 659 725 1187 1297 1792 2452 0
2 6 10 16 27 34 50 71 93 103 139 172 208 306 342 525 660 726 1188 1298 1793 2453 0
3 7 11 17 28 35 51 72 94 104 140 173 209 307 343 526 661 727 1189 1299 1794 2454 0
1 8 12 18 29 36 52 73 95 105 141 174 210 308 344 527 662 728 1190 1300 1795 2455 0
2 4 13 19 30 37 53 74 76 106 142 175 211 309 345 528 663 729 1191 1301 1796 2456 0
3 5 14 20 31 38 54 75 77 107 143 176 212 310 346 529 664 730 1192 1302 1797 2457 0
1 6 9 21 23 39 55 58 78 108 144 177 213 311 347 530 665 731 1193 1303 1798 2458 0
2 7 10 22 24 40 56 59 79 109 145 178 214 312 348 531 666 732 1194 1304 1799 2459 0
3 8 11 15 25 41 57 60 80 110 146 179 215 313 349 532 667 733 1195 1305 1800 2460 0
1 4 12 16 26 42 43 61 81 111 147 180 216 314 350 533 668 734 1196 1306 1801 2461 0
2 5 13 17 27 32 44 62 82 112 148 181 217 315 351 534 669 735 1197 1307 1802 2462 0
3 6 14 18 28 33 45 63 83 113 149 182 218 316 352 535 670 736 1198 1308 1803 2463 0
1 7 9 19 29 34 46 64 84 114 150 183 219 317 353 536 671 737 1199 1309 1804 2464 0
2 8 10 20 30 35 47 65 85 115 151 184 220 318 354 537 672 738 1200 1310 1805 2465 0
3 4 11 21 31 36 48 66 86 116 152 185 221 319 355 538 673 739 1201 1311 1806 2466 0
1 5 12 22 23 37 49 67 87 117 153 186 222 320 356 539 674 740 1202 1312 1807 2467 0
2 6 13 15 24 38 50 68 88 118 154 187 223 321 357 540 675 741 1203 1313 1808 2468 0
3 7 14 16 25 39 51 69 89 119 155 188 224 322 358 541 676 742 1204 1314 1809 2469 0
1 8 9 17 26 40 52 70 90 120 156 189 225 323 359 542 677 743 1205 1315 1810 2470 0
2 4 10 18 27 41 53 71 91 121 157 190 226 324 360 543 678 744 1206 1316 1811 2471 0
3 5 11 19 28 42 54 72 92 122 158 191 227 325 361 544 679 745 1207 1317 1812 2472 0
1 6 12 20 29 32 55 73 93 123 126 192 228 326 362 545 680 746 1208 1318 1813 2473 0
2 7 13 21 30 33 56 74 94 124 127 193 229 327 363 546 681 747 1209 1319 1814 2474 0
3 8 14 22 31 34 57 75 95 125 128 194 230 328 364 547 682 748 1210 1320 1815 2475 0
1 4 9 15 23 35 43 58 76 96 129 159 231 239 365 428 683 749 1211 1321 1816 2476 0
2 5 10 16 24 36 44 59 77 97 130 160 232 240 366 429 684 750 1212 1322 1817 2477 0
3 6 11 17 25 37 45 60 78 98 131 161 233 241 367 430 685 751 1213 1323 1818 2478 0
1 7 12 18 26 38 46 61 79 99 132 162 234 242 368 431 686 752 1214 1324 1819 2479 0
2 8 13 19 27 39 47 62 80 100 133 163 235 243 369 432 687 753 1215 1325 1820 2480 0
3 4 14 20 28 40 48 63 81 101 134 164 236 244 370 433 688 754 1216 1326 1821 2481 0
1 5 9 21 29 41 49 64 82 102 135 165 237 245 371 434 689 755 1217 1327 1822 2482 0
2 6 10 22 30 42 50 65 83 103 136 166 238 246 372 435 690 756 1218 1328 1823 2483 0
3 7 11 15 31 32 51 66 84 104 137 167 195 247 373 436 691 757 1219 1329 1824 2484 0
1 8 12 16 23 33 52 67 85 105 138 168 196 248 374 437 692 758 1220 1330 1825 2485 0
2 4 13 17 24 34 53 68 86 106 139 169 197 249 375 438 693 759 1221 1331 1826 2486 0
3 5 14 18 25 35 54 69 87 107 140 170 198 250 376 439 694 760 1222 1332 1827 2487 0
1 6 9 19 26 36 55 70 88 108 141 171 199 251 377 440 695 761 1223 1333 1828 2488 0
2 7 10 20 27 37 56 71 89 109 142 172 200 252 378 441 696 762 1224 1334 1829 2489 0
3 8 11 21 28 38 57 72 90 110 143 173 201 253 379 442 697 763 1225 1335 1830 2490 0
1 4 12 22 29 39 43 73 91 111 144 174 202 254 380 443 698 764 1226 1336 1831 2491 0
2 5 13 15 30 40 44 74 92 112 145 175 203 255 381 444 699 765 1227 1337 1832 2492 0
3 6 14 16 31 41 45 75 93 113 146 176 204 256 382 445 700 766 1228 1338 1833 2493 0
1 7 9 17 23 42 46 58 94 114 147 177 205 257 383 446 701 767 1229 1339 1834 2494 0
2 8 10 18 24 32 47 59 95 115 148 178 206 258 384 447 702 768 1230 1340 1835 2495 0
3 4 11 19 25 33 48 60 76 116 149 179 207 259 385 448 703 769 1231 1341 1836 2496 0
1 5 12 20 26 34 49 61 77 117 150 180 208 260 386 449 704 770 1232 1342 1837 2497 0
2 6 13 21 27 35 50 62 78 118 151 181 209 261 387 450 705 771 1233 1343 1838 2498 0
3 7 14 22 28 36 51 63 79 119 152 182 210 262 388 451 706 772 1234 1344 1839 2499 0
1 8 9 15 29 37 52 64 80 120 153 183 211 263 389 452 707 773 1235 1345 1840 2500 0
2 4 10 16 30 38 53 65 81 121 154 184 212 264 390 453 708 774 1236 1346 1841 2501 0
3 5 11 17 31 39 54 66 82 122 155 185 213 265 391 454 709 775 1237 1347 1842 2502 0
1 6 12 18 23 40 55 67 83 123 156 186 214 266 392 455 710 776 1238 1348 1843 2503 0
2 7 13 19 24 41 56 68 84 124 157 187 215 267 393 456 711 777 1239 1349 1844 2504 0
3 8 14 20 25 42 57 69 85 125 158 188 216 268 394 457 712 778 1240 1350 1845 2505 0
1 4 9 21 26 32 43 70 86 96 126 189 217 269 395 458 548 779 911 1351 1846 2506 0
2 5 10 22 27 33 44 71 87 97 127 190 218 270 396 459 549 780 912 1352 1847 2507 0
3 6 11 15 28 34 45 72 88 98 128 191 219 271 397 460 550 781 913 1353 1848 2508 0
1 7 12 16 29 35 46 73 89 99 129 192 220 272 398 461 551 782 914 1354 1849 2509 0
2 8 13 17 30 36 47 74 90 100 130 193 221 273 399 462 552 783 915 1355 1850 2510 0
3 4 14 18 31 37 48 75 91 101 131 194 222 274 400 463 553 784 916 1356 1851 2511 0
1 5 9 19 23 38 49 58 92 102 132 159 223 275 401 464 554 785 917 1357 1852 2512 0
2 6 10 20 24 39 50 59 93 103 133 160 224 276 402 465 555 786 918 1358 1853 2513 0
3 7 11 21 25 40 51 60 94 104 134 161 225 277 403 466 556 787 919 1359 1854 2514 0
1 8 12 22 26 41 52 61 95 105 135 162 226 278 404 467 557 788 920 1360 1855 2515 0
2 4 13 15 27 42 53 62 76 106 136 163 227 279 405 468 558 789 921 1361 1856 2516 0
3 5 14 16 28 32 54 63 77 107 137 164 228 280 406 469 559 790 922 1362 1857 2517 0
1 6 9 17 29 33 55 64 78 108 138 165 229 281 407 470 560 791 923 1363 1858 2518 0
2 7 10 18 30 34 56 65 79 109 139 166 230 282 408 471 561 792 924 1364 1859 2519 0
3 8 11 19 31 35 57 66 80 110 140 167 231 283 409 472 562 793 925 1365 1860 2520 0
1 4 12 20 23 36 43 67 81 111 141 168 232 284 410 473 563 794 926 1366 1861 2521 0
2 5 13 21 24 37 44 68 82 112 142 169 233 285 411 474 564 795 927 1367 1862 2522 0
3 6 14 22 25 38 45 69 83 113 143 170 234 286 412 475 565 796 928 1368 1863 2523 0
1 7 9 15 26 39 46 70 84 114 144 171 235 287 413 476 566 797 929 1369 1864 2524 0
2 8 10 16 27 40 47 71 85 115 145 172 236 288 414 477 567 798 930 1370 1865 2525 0
3 4 11 17 28 41 48 72 86 116 146 173 237 289 415 478 568 799 931 1371 1866 2526 0
1 5 12 18 29 42 49 73 87 117 147 174 238 290 416 479 569 800 932 1372 1867 2527 0
2 6 13 19 30 32 50 74 88 118 148 175 195 291 417 480 570 801 933 1373 1868 2528 0
3 7 14 20 31 33 51 75 89 119 149 176 196 292 418 481 571 802 934 1374 1869 2529 0
1 8 9 21 23 34 52 58 90 120 150 177 197 293 419 482 572 803 935 1375 1870 2530 0
2 4 10 22 24 35 53 59 91 121 151 178 198 294 420 483 573 804 936 1376 1871 2531 0
3 5 11 15 25 36 54 60 92 122 152 179 199 295 421 484 574 805 937 1377 1872 2532 0
1 6 12 16 26 37 55 61 93 123 153 180 200 296 422 485 575 806 938 1378 1873 2533 0
2 7 13 17 27 38 56 62 94 124 154 181 201 297 423 486 576 807 939 1379 1874 2534 0
3 8 14 18 28 39 57 63 95 125 155 182 202 298 424 487 577 808 940 1380 1875 2535 0
1 4 9 19 29 40 43 64 76 96 156 183 203 299 425 488 578 809 941 1381 1876 2536 0
2 5 10 20 30 41 44 65 77 97 157 184 204 300 426 489 579 810 942 1382 1877 2537 0
3 6 11 21 31 42 45 66 78 98 158 185 205 301 427 490 580 811 943 1383 1878 2538 0
1 7 12 22 23 32 46 67 79 99 126 186 206 302 329 491 581 812 944 1384 1879 2539 0
2 8 13 15 24 33 47 68 80 100 127 187 207 303 330 492 582 813 945 1385 1880 2540 0
3 4 14 16 25 34 48 69 81 101 128 188 208 304 331 493 583 814 946 1386 1881 2541 0
1 5 9 17 26 35 49 70 82 102 129 189 209 305 332 494 584 815 947 1387 1882 2542 0
2 6 10 18 27 36 50 71 83 103 130 190 210 306 333 495 585 816 948 1388 1883 2543 0
3 7 11 19 28 37 51 72 84 104 131 191 211 307 334 496 586 817 949 1389 1884 2544 0
1 8 12 20 29 38 52 73 85 105 132 192 212 308 335 497 587 818 950 1390 1885 2545 0
2 4 13 21 30 39 53 74 86 106 133 193 213 309 336 498 588 819 951 1391 1886 2546 0
3 5 14 22 31 40 54 75 87 107 134 194 214 310 337 499 589 820 952 1392 1887 2547 0
1 6 9 15 23 41 55 58 88 108 135 159 215 311 338 500 590 821 953 1393 1888 2548 0
2 7 10 16 24 42 56 59 89 109 136 160 216 312 339 501 591 822 954 1394 1889 2549 0
3 8 11 17 25 32 57 60 90 110 137 161 217 313 340 502 592 823 955 1395 1890 2550 0
1 4 12 18 26 33 43 61 91 111 138 162 218 314 341 503 593 824 956 1396 1891 2551 0
2 5 13 19 27 34 44 62 92 112 139 163 219 315 342 504 594 825 957 1397 1892 2552 0
3 6 14 20 28 35 45 63 93 113 140 164 220 316 343 505 595 826 958 1398 1893 2553 0
1 7 9 21 29 36 46 64 94 114 141 165 221 317 344 506 596 827 959 1399 1894 2554 0
2 8 10 22 30 37 47 65 95 115 142 166 222 318 345 507 597 828 960 1400 1895 2555 0
3 4 11 15 31 38 48 66 76 116 143 167 223 319 346 508 598 829 961 1401 1896 2556 0
1 5 12 16 23 39 49 67 77 117 144 168 224 320 347 509 599 830 962 1402 1897 2557 0
2 6 13 17 24 40 50 68 78 118 145 169 225 321 348 510 600 831 963 1403 1898 2558 0
3 7 14 18 25 41 51 69 79 119 146 170 226 322 349 511 601 832 964 1404 1899 2559 0
1 8 9 19 26 42 52 70 80 120 147 171 227 323 350 512 602 833 965 1405 1900 2560 0
2 4 10 20 27 32 53 71 81 121 148 172 228 324 351 513 603 834 966 1406 1901 2561 0
3 5 11 21 28 33 54 72 82 122 149 173 229 325 352 514 604 835 967 1407 1902 2562 0
1 6 12 22 29 34 55 73 83 123 150 174 230 326 353 515 605 836 968 1408 1903 2563 0
2 7 13 15 30 35 56 74 84 124 151 175 231 327 354 516 606 837 969 1409 1904 2564 0
3 8 14 16 31 36 57 75 85 125 152 176 232 328 355 517 607 838 970 1410 1905 2565 0
1 4 9 17 23 37 43 58 86 96 153 177 233 239 356 518 608 839 971 1411 1906 2566 0
2 5 10 18 24 38 44 59 87 97 154 178 234 240 357 519 609 840 972 1412 1907 2567 0
3 6 11 19 25 39 45 60 88 98 155 179 235 241 358 520 610 841 973 1413 1908 2568 0
1 7 12 20 26 40 46 61 89 99 156 180 236 242 359 521 611 842 974 1414 1909 2569 0
2 8 13 21 27 41 47 62 90 100 157 181 237 243 360 522 612 843 975 1415 1910 2570 0
3 4 14 22 28 42 48 63 91 101 158 182 238 244 361 523 613 844 976 1416 1911 2571 0
1 5 9 15 29 32 49 64 92 102 126 183 195 245 362 524 614 845 977 1417 1912 2572 0
2 6 10 16 30 33 50 65 93 103 127 184 196 246 363 525 615 846 978 1418 1913 2573 0
3 7 11 17 31 34 51 66 94 104 128 185 197 247 364 526 616 847 979 1419 1914 2574 0
1 8 12 18 23 35 52 67 95 105 129 186 198 248 365 527 617 848 980 1420 1915 2575 0
2 4 13 19 24 36 53 68 76 106 130 187 199 249 366 528 618 849 981 1421 1916 2576 0
3 5 14 20 25 37 54 69 77 107 131 188 200 250 367 529 619 850 982 1422 1917 2577 0
1 6 9 21 26 38 55 70 78 108 132 189 201 251 368 530 620 851 983 1423 1918 2578 0
2 7 10 22 27 39 56 71 79 109 133 190 202 252 369 531 621 852 984 1424 1919 2579 0
3 8 11 15 28 40 57 72 80 110 134 191 203 253 370 532 622 853 985 1425 1920 2580 0
1 4 12 16 29 41 43 73 81 111 135 192 204 254 371 533 623 854 986 1426 1921 2581 0
2 5 13 17 30 42 44 74 82 112 136 193 205 255 372 534 624 855 987 1427 1922 2582 0
3 6 14 18 31 32 45 75 83 113 137 194 206 256 373 535 625 856 988 1428 1923 2583 0
1 7 9 19 23 33 46 58 84 114 138 159 207 257 374 536 626 857 989 1429 1924 2584 0
2 8 10 20 24 34 47 59 85 115 139 160 208 258 375 537 627 858 990 1430 1925 2585 0
3 4 11 21 25 35 48 60 86 116 140 161 209 259 376 538 628 859 991 1431 1926 2586 0
1 5 12 22 26 36 49 61 87 117 141 162 210 260 377 539 629 860 992 1432 1927 2587 0
2 6 13 15 27 37 50 62 88 118 142 163 211 261 378 540 630 861 993 1433 1928 2588 0
3 7 14 16 28 38 51 63 89 119 143 164 212 262 379 541 631 862 994 1434 1929 2589 0
1 8 9 17 29 39 52 64 90 120 144 165 213 263 380 542 632 863 995 1435 1930 2590 0
2 4 10 18 30 40 53 65 91 121 145 166 214 264 381 543 633 864 996 1436 1931 2591 0
3 5 11 19 31 41 54 66 92 122 146 167 215 265 382 544 634 865 997 1437 1932 2592 0
1 6 12 20 23 42 55 67 93 123 147 168 216 266 383 545 635 866 998 1438 1933 2593 0
2 7 13 21 24 32 56 68 94 124 148 169 217 267 384 546 636 867 999 1439 1934 2594 0
3 8 14 22 25 33 57 69 95 125 149 170 218 268 385 547 637 868 1000 1440 1935 2595 0
1 4 9 15 26 34 43 70 76 96 150 171 219 269 386 428 638 869 1001 1441 1936 2596 0
2 5 10 16 27 35 44 71 77 97 151 172 220 270 387 429 639 870 1002 1442 1937 2597 0
3 6 11 17 28 36 45 72 78 98 152 173 221 271 388 430 640 871 1003 1443 1938 2598 0
1 7 12 18 29 37 46 73 79 99 153 174 222 272 389 431 641 872 1004 1444 1939 2599 0
2 8 13 19 30 38 47 74 80 100 154 175 223 273 390 432 642 873 1005 1445 1940 2600 0
3 4 14 20 31 39 48 75 81 101 155 176 224 274 391 433 643 874 1006 1446 1941 2601 0
1 5 9 21 23 40 49 58 82 102 156 177 225 275 392 434 644 875 1007 1447 1942 2602 0
2 6 10 22 24 41 50 59 83 103 157 178 226 276 393 435 645 876 1008 1448 1943 2603 0
3 7 11 15 25 42 51 60 84 104 158 179 227 277 394 436 646 877 1009 1449 1944 2604 0
1 8 12 16 26 32 52 61 85 105 126 180 228 278 395 437 647 878 1010 1450 1945 2605 0
2 4 13 17 27 33 53 62 86 106 127 181 229 279 396 438 648 879 1011 1451 1946 2606 0
3 5 14 18 28 34 54 63 87 107 128 182 230 280 397 439 649 880 1012 1452 1947 2607 0
1 6 9 19 29 35 55 64 88 108 129 183 231 281 398 440 650 881 1013 1453 1948 2608 0
2 7 10 20 30 36 56 65 89 109 130 184 232 282 399 441 651 882 1014 1454 1949 2609 0
3 8 11 21 31 37 57 66 90 110 131 185 233 283 400 442 652 883 1015 1455 1950 2610 0
1 4 12 22 23 38 43 67 91 111 132 186 234 284 401 443 653 884 1016 1456 1951 2611 0
2 5 13 15 24 39 44 68 92 112 133 187 235 285 402 444 654 885 1017 1457 1952 2612 0
3 6 14 16 25 40 45 69 93 113 134 188 236 286 403 445 655 886 1018 1458 1953 2613 0
1 7 9 17 26 41 46 70 94 114 135 189 237 287 404 446 656 887 1019 1459 1954 2614 0
2 8 10 18 27 42 47 71 95 115 136 190 238 288 405 447 657 888 1020 1460 1955 2615 0
3 4 11 19 28 32 48 72 76 116 137 191 195 289 406 448 658 889 1021 1461 1956 2616 0
1 5 12 20 29 33 49 73 77 117 138 192 196 290 407 449 659 890 1022 1462 1957 2617 0
2 6 13 21 30 34 50 74 78 118 139 193 197 291 408 450 660 891 1023 1463 1958 2618 0
3 7 14 22 31 35 51 75 79 119 140 194 198 292 409 451 661 892 1024 1464 1959 2619 0
1 8 9 15 23 36 52 58 80 120 141 159 199 293 410 452 662 893 1025 1465 1960 2620 0
2 4 10 16 24 37 53 59 81 121 142 160 200 294 411 453 663 894 1026 1466 1961 2621 0
3 5 11 17 25 38 54 60 82 122 143 161 201 295 412 454 664 895 1027 1467 1962 2622 0
1 6 12 18 26 39 55 61 83 123 144 162 202 296 413 455 665 896 1028 1468 1963 2623 0
2 7 13 19 27 40 56 62 84 124 145 163 203 297 414 456 666 897 1029 1469 1964 2624 0
3 8 14 20 28 41 57 63 85 125 146 164 204 298 415 457 667 898 1030 1470 1965 2625 0
1 4 9 21 29 42 43 64 86 96 147 165 205 299 416 458 668 899 1031 1471 1966 2626 0
2 5 10 22 30 32 44 65 87 97 148 166 206 300 417 459 669 900 1032 1472 1967 2627 0
3 6 11 15 31 33 45 66 88 98 149 167 207 301 418 460 670 901 1033 1473 1968 2628 0
1 7 12 16 23 34 46 67 89 99 150 168 208 302 419 461 671 902 1034 1474 1969 2629 0
2 8 13 17 24 35 47 68 90 100 151 169 209 303 420 462 672 903 1035 1475 1970 2630 0
3 4 14 18 25 36 48 69 91 101 152 170 210 304 421 463 673 904 1036 1476 1971 2631 0
1 5 9 19 26 37 49 70 92 102 153 171 211 305 422 464 674 905 1037 1477 1972 2632 0
2 6 10 20 27 38 50 71 93 103 154 172 212 306 423 465 675 906 1038 1478 1973 2633 0
3 7 11 21 28 39 51 72 94 104 155 173 213 307 424 466 676 907 1039 1479 1974 2634 0
1 8 12 22 29 40 52 73 95 105 156 174 214 308 425 467 677 908 1040 1480 1975 2635 0
2 4 13 15 30 41 53 74 76 106 157 175 215 309 426 468 678 909 1041 1481 1976 2636 0
3 5 14 16 31 42 54 75 77 107 158 176 216 310 427 469 679 910 1042 1482 1977 2637 0
1 6 9 17 23 32 55 58 78 108 126 177 217 311 329 470 680 713 1043 1483 1978 2638 0
2 7 10 18 24 33 56 59 79 109 127 178 218 312 330 471 681 714 1044 1484 1979 2639 0
3 8 11 19 25 34 57 60 80 110 128 179 219 313 331 472 682 715 1045 1485 1980 2640 0
1 4 12 20 26 35 43 61 81 111 129 180 220 314 332 473 683 716 1046 1486 1981 2641 0
2 5 13 21 27 36 44 62 82 112 130 181 221 315 333 474 684 717 1047 1487 1982 2642 0
3 6 14 22 28 37 45 63 83 113 131 182 222 316 334 475 685 718 1048 1488 1983 2643 0
1 7 9 15 29 38 46 64 84 114 132 183 223 317 335 476 686 719 1049 1489 1984 2644 0
2 8 10 16 30 39 47 65 85 115 133 184 224 318 336 477 687 720 1050 1490 1985 2645 0
3 4 11 17 31 40 48 66 86 116 134 185 225 319 337 478 688 721 1051 1491 1986 2646 0
1 5 12 18 23 41 49 67 87 117 135 186 226 320 338 479 689 722 1052 1492 1987 2647 0
2 6 13 19 24 42 50 68 88 118 136 187 227 321 339 480 690 723 1053 1493 1988 2648 0
3 7 14 20 25 32 51 69 89 119 137 188 228 322 340 481 691 724 1054 1494 1989 2649 0
1 8 9 21 26 33 52 70 90 120 138 189 229 323 341 482 692 725 1055 1495 1990 2650 0
2 4 10 22 27 34 53 71 91 121 139 190 230 324 342 483 693 726 1056 1496 1991 2651 0
3 5 11 15 28 35 54 72 92 122 140 191 231 325 343 484 694 727 1057 1497 1992 2652 0
1 6 12 16 29 36 55 73 93 123 141 192 232 326 344 485 695 728 1058 1498 1993 2653 0
2 7 13 17 30 37 56 74 94 124 142 193 233 327 345 486 696 729 1059 1499 1994 2654 0
3 8 14 18 31 38 57 75 95 125 143 194 234 328 346 487 697 730 1060 1500 1995 2655 0
1 4 9 19 23 39 43 58 76 96 144 159 235 239 347 488 698 731 1061 1501 1996 2656 0
2 5 10 20 24 40 44 59 77 97 145 160 236 240 348 489 699 732 1062 1502 1997 2657 0
3 6 11 21 25 41 45 60 78 98 146 161 237 241 349 490 700 733 1063 1503 1998 2658 0
1 7 12 22 26 42 46 61 79 99 147 162 238 242 350 491 701 734 1064 1504 1999 2659 0
2 8 13 15 27 32 47 62 80 100 148 163 195 243 351 492 702 735 1065 1505 2000 2660 0
3 4 14 16 28 33 48 63 81 101 149 164 196 244 352 493 703 736 1066 1506 2001 2661 0
1 5 9 17 29 34 49 64 82 102 150 165 197 245 353 494 704 737 1067 1507 2002 2662 0
2 6 10 18 30 35 50 65 83 103 151 166 198 246 354 495 705 738 1068 1508 2003 2663 0
3 7 11 19 31 36 51 66 84 104 152 167 199 247 355 496 706 739 1069 1509 2004 2664 0
1 8 12 20 23 37 52 67 85 105 153 168 200 248 356 497 707 740 1070 1510 2005 2665 0
2 4 13 21 24 38 53 68 86 106 154 169 201 249 357 498 708 741 1071 1511 2006 2666 0
3 5 14 22 25 39 54 69 87 107 155 170 202 250 358 499 709 742 1072 1512 2007 2667 0
1 6 9 15 26 40 55 70 88 108 156 171 203 251 359 500 710 743 1073 1513 2008 2668 0
2 7 10 16 27 41 56 71 89 109 157 172 204 252 360 501 711 744 1074 1514 2009 2669 0
3 8 11 17 28 42 57 72 90 110 158 173 205 253 361 502 712 745 1075 1515 2010 2670 0
1 4 12 18 29 32 43 73 91 111 126 174 206 254 362 503 548 746 1076 1516 2011 2671 0
2 5 13 19 30 33 44 74 92 112 127 175 207 255 363 504 549 747 1077 1517 2012 2672 0
3 6 14 20 31 34 45 75 93 113 128 176 208 256 364 505 550 748 1078 1518 2013 2673 0
1 7 9 21 23 35 46 58 94 114 129 177 209 257 365 506 551 749 1079 1519 2014 2674 0
2 8 10 22 24 36 47 59 95 115 130 178 210 258 366 507 552 750 1080 1520 2015 2675 0
3 4 11 15 25 37 48 60 76 116 131 179 211 259 367 508 553 751 1081 1521 2016 2676 0
1 5 12 16 26 38 49 61 77 117 132 180 212 260 368 509 554 752 1082 1522 2017 2677 0
2 6 13 17 27 39 50 62 78 118 133 181 213 261 369 510 555 753 1083 1523 2018 2678 0
3 7 14 18 28 40 51 63 79 119 134 182 214 262 370 511 556 754 1084 1524 2019 2679 0
1 8 9 19 29 41 52 64 80 120 135 183 215 263 371 512 557 755 1085 1525 2020 2680 0
2 4 10 20 30 42 53 65 81 121 136 184 216 264 372 513 558 756 1086 1526 2021 2681 0
3 5 11 21 31 32 54 66 82 122 137 185 217 265 373 514 559 757 1087 1527 2022 2682 0
1 6 12 22 23 33 55 67 83 123 138 186 218 266 374 515 560 758 1088 1528 2023 2683 0
2 7 13 15 24 34 56 68 84 124 139 187 219 267 375 516 561 759 1089 1529 2024 2684 0
3 8 14 16 25 35 57 69 85 125 140 188 220 268 376 517 562 760 1090 1530 2025 2685 0
1 4 9 17 26 36 43 70 86 96 141 189 221 269 377 518 563 761 1091 1531 2026 2686 0
2 5 10 18 27 37 44 71 87 97 142 190 222 270 378 519 564 762 1092 1532 2027 2687 0
3 6 11 19 28 38 45 72 88 98 143 191 223 271 379 520 565 763 1093 1533 2028 2688 0
1 7 12 20 29 39 46 73 89 99 144 192 224 272 380 521 566 764 1094 1534 2029 2689 0
2 8 13 21 30 40 47 74 90 100 145 193 225 273 381 522 567 765 1095 1535 2030 2690 0
3 4 14 22 31 41 48 75 91 101 146 194 226 274 382 523 568 766 1096 1536 2031 2691 0
1 5 9 15 23 42 49 58 92 102 147 159 227 275 383 524 569 767 1097 1537 2032 2692 0
2 6 10 16 24 32 50 59 93 103 148 160 228 276 384 525 570 768 1098 1538 2033 2693 0
3 7 11 17 25 33 51 60 94 104 149 161 229 277 385 526 571 769 1099 1539 2034 2694 0
1 8 12 18 26 34 52 61 95 105 150 162 230 278 386 527 572 770 1100 1540 2035 2695 0
2 4 13 19 27 35 53 62 76 106 151 163 231 279 387 528 573 771 1101 1541 2036 2696 0
3 5 14 20 28 36 54 63 77 107 152 164 232 280 388 529 574 772 1102 1542 2037 2697 0
1 6 9 21 29 37 55 64 78 108 153 165 233 281 389 530 575 773 1103 1543 2038 2698 0
2 7 10 22 30 38 56 65 79 109 154 166 234 282 390 531 576 774 1104 1544 2039 2699 0
3 8 11 15 31 39 57 66 80 110 155 167 235 283 391 532 577 775 1105 1545 2040 2700 0
1 4 12 16 23 40 43 67 81 111 156 168 236 284 392 533 578 776 1106 1546 2041 2701 0
2 5 13 17 24 41 44 68 82 112 157 169 237 285 393 534 579 777 1107 1547 2042 2702 0
3 6 14 18 25 42 45 69 83 113 158 170 238 286 394 535 580 778 1108 1548 2043 2703 0
1 7 9 19 26 32 46 70 84 114 126 171 195 287 395 536 581 779 1109 1549 2044 2704 0
2 8 10 20 27 33 47 71 85 115 127 172 196 288 396 537 582 780 1110 1550 2045 2705 0
3 4 11 21 28 34 48 72 86 116 128 173 197 289 397 538 583 781 1111 1551 2046 2706 0
1 5 12 22 29 35 49 73 87 117 129 174 198 290 398 539 584 782 1112 1552 2047 2707 0
2 6 13 15 30 36 50 74 88 118 130 175 199 291 399 540 585 783 1113 1553 2048 2708 0
3 7 14 16 31 37 51 75 89 119 131 176 200 292 400 541 586 784 1114 1554 2049 2709 0
1 8 9 17 23 38 52 58 90 120 132 177 201 293 401 542 587 785 1115 1555 2050 2710 0
2 4 10 18 24 39 53 59 91 121 133 178 202 294 402 543 588 786 1116 1556 2051 2711 0
3 5 11 19 25 40 54 60 92 122 134 179 203 295 403 544 589 787 1117 1557 2052 2712 0
1 6 12 20 26 41 55 61 93 123 135 180 204 296 404 545 590 788 1118 1558 2053 2713 0
2 7 13 21 27 42 56 62 94 124 136 181 205 297 405 546 591 789 1119 1559 2054 2714 0
3 8 14 22 28 32 57 63 95 125 137 182 206 298 406 547 592 790 1120 1560 2055 2715 0
1 4 9 15 29 33 43 64 76 96 138 183 207 299 407 428 593 791 1121 1561 2056 2716 0
2 5 10 16 30 34 44 65 77 97 139 184 208 300 408 429 594 792 1122 1562 2057 2717 0
3 6 11 17 31 35 45 66 78 98 140 185 209 301 409 430 595 793 1123 1563 2058 2718 0
1 7 12 18 23 36 46 67 79 99 141 186 210 302 410 431 596 794 1124 1564 2059 2719 0
2 8 13 19 24 37 47 68 80 100 142 187 211 303 411 432 597 795 1125 1565 2060 2720 0
3 4 14 20 25 38 48 69 81 101 143 188 212 304 412 433 598 796 1126 1566 2061 2721 0
1 5 9 21 26 39 49 70 82 102 144 189 213 305 413 434 599 797 1127 1567 2062 2722 0
2 6 10 22 27 40 50 71 83 103 145 190 214 306 414 435 600 798 1128 1568 2063 2723 0
3 7 11 15 28 41 51 72 84 104 146 191 215 307 415 436 601 799 1129 1569 2064 2724 0
1 8 12 16 29 42 52 73 85 105 147 192 216 308 416 437 602 800 1130 1570 2065 2725 0
2 4 13 17 30 32 53 74 86 106 148 193 217 309 417 438 603 801 1131 1571 2066 2726 0
3 5 14 18 31 33 54 75 87 107 149 194 218 310 418 439 604 802 1132 1572 2067 2727 0
1 6 9 19 23 34 55 58 88 108 150 159 219 311 419 440 605 803 1133 1573 2068 2728 0
2 7 10 20 24 35 56 59 89 109 151 160 220 312 420 441 606 804 1134 1574 2069 2729 0
3 8 11 21 25 36 57 60 90 110 152 161 221 313 421 442 607 805 1135 1575 2070 2730 0
1 4 12 22 26 37 43 61 91 111 153 162 222 314 422 443 608 806 1136 1576 2071 2731 0
2 5 13 15 27 38 44 62 92 112 154 163 223 315 423 444 609 807 1137 1577 2072 2732 0
3 6 14 16 28 39 45 63 93 113 155 164 224 316 424 445 610 808 1138 1578 2073 2733 0
1 7 9 17 29 40 46 64 94 114 156 165 225 317 425 446 611 809 1139 1579 2074 2734 0
2 8 10 18 30 41 47 65 95 115 157 166 226 318 426 447 612 810 1140 1580 2075 2735 0
3 4 11 19 31 42 48 66 76 116 158 167 227 319 427 448 613 811 1141 1581 2076 2736 0
1 5 12 20 23 32 49 67 77 117 126 168 228 320 329 449 614 812 1142 1582 2077 2737 0
2 6 13 21 24 33 50 68 78 118 127 169 229 321 330 450 615 813 1143 1583 2078 2738 0
3 7 14 22 25 34 51 69 79 119 128 170 230 322 331 451 616 814 1144 1584 2079 2739 0
1 8 9 15 26 35 52 70 80 120 129 171 231 323 332 452 617 815 1145 1585 2080 2740 0
2 4 10 16 27 36 53 71 81 121 130 172 232 324 333 453 618 816 1146 1586 2081 2741 0
3 5 11 17 28 37 54 72 82 122 131 173 233 325 334 454 619 817 1147 1587 2082 2742 0
1 6 12 18 29 38 55 73 83 123 132 174 234 326 335 455 620 818 1148 1588 2083 2743 0
2 7 13 19 30 39 56 74 84 124 133 175 235 327 336 456 621 819 1149 1589 2084 2744 0
3 8 14 20 31 40 57 75 85 125 134 176 236 328 337 457 622 820 1150 1590 2085 2745 0
1 4 9 21 23 41 43 58 86 96 135 177 237 239 338 458 623 821 1151 1591 2086 2746 0
2 5 10 22 24 42 44 59 87 97 136 178 238 240 339 459 624 822 1152 1592 2087 2747 0
3 6 11 15 25 32 45 60 88 98 137 179 195 241 340 460 625 823 1153 1593 2088 2748 0
1 7 12 16 26 33 46 61 89 99 138 180 196 242 341 461 626 824 1154 1594 2089 2749 0
2 8 13 17 27 34 47 62 90 100 139 181 197 243 342 462 627 825 1155 1595 2090 2750 0
3 4 14 18 28 35 48 63 91 101 140 182 198 244 343 463 628 826 1156 1596 2091 2751 0
1 5 9 19 29 36 49 64 92 102 141 183 199 245 344 464 629 827 1157 1597 2092 2752 0
2 6 10 20 30 37 50 65 93 103 142 184 200 246 345 465 630 828 1158 1598 2093 2753 0
3 7 11 21 31 38 51 66 94 104 143 185 201 247 346 466 631 829 1159 1599 2094 2754 0
1 8 12 22 23 39 52 67 95 105 144 186 202 248 347 467 632 830 1160 1600 2095 2755 0
2 4 13 15 24 40 53 68 76 106 145 187 203 249 348 468 633 831 1161 1601 2096 2756 0
3 5 14 16 25 41 54 69 77 107 146 188 204 250 349 469 634 832 1162 1602 2097 2757 0
1 6 9 17 26 42 55 70 78 108 147 189 205 251 350 470 635 833 1163 1603 2098 2758 0
2 7 10 18 27 32 56 71 79 109 148 190 206 252 351 471 636 834 1164 1604 2099 2759 0
3 8 11 19 28 33 57 72 80 110 149 191 207 253 352 472 637 835 1165 1605 2100 2760 0
1 4 12 20 29 34 43 73 81 111 150 192 208 254 353 473 638 836 1166 1606 2101 2761 0
2 5 13 21 30 35 44 74 82 112 151 193 209 255 354 474 639 837 1167 1607 2102 2762 0
3 6 14 22 31 36 45 75 83 113 152 194 210 256 355 475 640 838 1168 1608 2103 2763 0
1 7 9 15 23 37 46 58 84 114 153 159 211 257 356 476 641 839 1169 1609 2104 2764 0
2 8 10 16 24 38 47 59 85 115 154 160 212 258 357 477 642 840 1170 1610 2105 2765 0
3 4 11 17 25 39 48 60 86 116 155 161 213 259 358 478 643 841 1171 1611 2106 2766 0
1 5 12 18 26 40 49 61 87 117 156 162 214 260 359 479 644 842 1172 1612 2107 2767 0
2 6 13 19 27 41 50 62 88 118 157 163 215 261 360 480 645 843 1173 1613 2108 2768 0
3 7 14 20 28 42 51 63 89 119 158 164 216 262 361 481 646 844 1174 1614 2109 2769 0
1 8 9 21 29 32 52 64 90 120 126 165 217 263 362 482 647 845 1175 1615 2110 2770 0
2 4 10 22 30 33 53 65 91 121 127 166 218 264 363 483 648 846 1176 1616 2111 2771 0
3 5 11 15 31 34 54 66 92 122 128 167 219 265 364 484 649 847 1177 1617 2112 2772 0
1 6 12 16 23 35 55 67 93 123 129 168 220 266 365 485 650 848 1178 1618 2113 2773 0
2 7 13 17 24 36 56 68 94 124 130 169 221 267 366 486 651 849 1179 1619 2114 2774 0
3 8 14 18 25 37 57 69 95 125 131 170 222 268 367 487 652 850 1180 1620 2115 2775 0
1 4 9 19 26 38 43 70 76 96 132 171 223 269 368 488 653 851 1181 1621 2116 2776 0
2 5 10 20 27 39 44 71 77 97 133 172 224 270 369 489 654 852 1182 1622 2117 2777 0
3 6 11 21 28 40 45 72 78 98 134 173 225 271 370 490 655 853 1183 1623 2118 2778 0
1 7 12 22 29 41 46 73 79 99 135 174 226 272 371 491 656 854 1184 1624 2119 2779 0
2 8 13 15 30 42 47 74 80 100 136 175 227 273 372 492 657 855 1185 1625 2120 2780 0
3 4 14 16 31 32 48 75 81 101 137 176 228 274 373 493 658 856 1186 1626 2121 2781 0
1 5 9 17 23 33 49 58 82 102 138 177 229 275 374 494 659 857 1187 1627 2122 2782 0
2 6 10 18 24 34 50 59 83 103 139 178 230 276 375 495 660 858 1188 1628 2123 2783 0
3 7 11 19 25 35 51 60 84 104 140 179 231 277 376 496 661 859 1189 1629 2124 2784 0
1 8 12 20 26 36 52 61 85 105 141 180 232 278 377 497 662 860 1190 1630 2125 2785 0
2 4 13 21 27 37 53 62 86 106 142 181 233 279 378 498 663 861 1191 1631 2126 2786 0
3 5 14 22 28 38 54 63 87 107 143 182 234 280 379 499 664 862 1192 1632 2127 2787 0
1 6 9 15 29 39 55 64 88 108 144 183 235 281 380 500 665 863 1193 1633 2128 2788 0
2 7 10 16 30 40 56 65 89 109 145 184 236 282 381 501 666 864 1194 1634 2129 2789 0
3 8 11 17 31 41 57 66 90 110 146 185 237 283 382 502 667 865 1195 1635 2130 2790 0
1 4 12 18 23 42 43 67 91 111 147 186 238 284 383 503 668 866 1196 1636 2131 2791 0
2 5 13 19 24 32 44 68 92 112 148 187 195 285 384 504 669 867 1197 1637 2132 2792 0
3 6 14 20 25 33 45 69 93 113 149 188 196 286 385 505 670 868 1198 1638 2133 2793 0
1 7 9 21 26 34 46 70 94 114 150 189 197 287 386 506 671 869 1199 1639 2134 2794 0
2 8 10 22 27 35 47 71 95 115 151 190 198 288 387 507 672 870 1200 1640 2135 2795 0
3 4 11 15 28 36 48 72 76 116 152 191 199 289 388 508 673 871 1201 1641 2136 2796 0
1 5 12 16 29 37 49 73 77 117 153 192 200 290 389 509 674 872 1202 1642 2137 2797 0
2 6 13 17 30 38 50 74 78 118 154 193 201 291 390 510 675 873 1203 1643 2138 2798 0
3 7 14 18 31 39 51 75 79 119 155 194 202 292 391 511 676 874 1204 1644 2139 2799 0
1 8 9 19 23 40 52 58 80 120 156 159 203 293 392 512 677 875 1205 1645 2140 2800 0
2 4 10 20 24 41 53 59 81 121 157 160 204 294 393 513 678 876 1206 1646 2141 2801 0
3 5 11 21 25 42 54 60 82 122 158 161 205 295 394 514 679 877 1207 1647 2142 2802 0
1 6 12 22 26 32 55 61 83 123 126 162 206 296 395 515 680 878 1208 1648 2143 2803 0
2 7 13 15 27 33 56 62 84 124 127 163 207 297 396 516 681 879 1209 1649 2144 2804 0
3 8 14 16 28 34 57 63 85 125 128 164 208 298 397 517 682 880 1210 1650 2145 2805 0
1 4 9 17 29 35 43 64 86 96 129 165 209 299 398 518 683 881 1211 1651 2146 2806 0
2 5 10 18 30 36 44 65 87 97 130 166 210 300 399 519 684 882 1212 1652 2147 2807 0
3 6 11 19 31 37 45 66 88 98 131 167 211 301 400 520 685 883 1213 1653 2148 2808 0
1 7 12 20 23 38 46 67 89 99 132 168 212 302 401 521 686 884 1214 1654 2149 2809 0
2 8 13 21 24 39 47 68 90 100 133 169 213 303 402 522 687 885 1215 1655 2150 2810 0
3 4 14 22 25 40 48 69 91 101 134 170 214 304 403 523 688 886 1216 1656 2151 2811 0
1 5 9 15 26 41 49 70 92 102 135 171 215 305 404 524 689 887 1217 1657 2152 2812 0
2 6 10 16 27 42 50 71 93 103 136 172 216 306 405 525 690 888 1218 1658 2153 2813 0
3 7 11 17 28 32 51 72 94 104 137 173 217 307 406 526 691 889 1219 1659 2154 2814 0
1 8 12 18 29 33 52 73 95 105 138 174 218 308 407 527 692 890 1220 1660 2155 2815 0
2 4 13 19 30 34 53 74 76 106 139 175 219 309 408 528 693 891 1221 1661 2156 2816 0
3 5 14 20 31 35 54 75 77 107 140 176 220 310 409 529 694 892 1222 1662 2157 2817 0
1 6 9 21 23 36 55 58 78 108 141 177 221 311 410 530 695 893 1223 1663 2158 2818 0
2 7 10 22 24 37 56 59 79 109 142 178 222 312 411 531 696 894 1224 1664 2159 2819 0
3 8 11 15 25 38 57 60 80 110 143 179 223 313 412 532 697 895 1225 1665 2160 2820 0
1 4 12 16 26 39 43 61 81 111 144 180 224 314 413 533 698 896 1226 1666 2161 2821 0
2 5 13 17 27 40 44 62 82 112 145 181 225 315 414 534 699 897 1227 1667 2162 2822 0
3 6 14 18 28 41 45 63 83 113 146 182 226 316 415 535 700 898 1228 1668 2163 2823 0
1 7 9 19 29 42 46 64 84 114 147 183 227 317 416 536 701 899 1229 1669 2164 2824 0
2 8 10 20 30 32 47 65 85 115 148 184 228 318 417 537 702 900 1230 1670 2165 2825 0
3 4 11 21 31 33 48 66 86 116 149 185 229 319 418 538 703 901 1231 1671 2166 2826 0
1 5 12 22 23 34 49 67 87 117 150 186 230 320 419 539 704 902 1232 1672 2167 2827 0
2 6 13 15 24 35 50 68 88 118 151 187 231 321 420 540 705 903 1233 1673 2168 2828 0
3 7 14 16 25 36 51 69 89 119 152 188 232 322 421 541 706 904 1234 1674 2169 2829 0
1 8 9 17 26 37 52 70 90 120 153 189 233 323 422 542 707 905 1235 1675 2170 2830 0
2 4 10 18 27 38 53 71 91 121 154 190 234 324 423 543 708 906 1236 1676 2171 2831 0
3 5 11 19 28 39 54 72 92 122 155 191 235 325 424 544 709 907 1237 1677 2172 2832 0
1 6 12 20 29 40 55 73 93 123 156 192 236 326 425 545 710 908 1238 1678 2173 2833 0
2 7 13 21 30 41 56 74 94 124 157 193 237 327 426 546 711 909 1239 1679 2174 2834 0
3 8 14 22 31 42 57 75 95 125 158 194 238 328 427 547 712 910 1240 1680 2175 2835 0
-1 5671 0
-5671 5672 0
-2 -5671 0
-2 5672 0
-3 -5672 0
-4 5673 0
-5673 5674 0
-5 -5673 0
-5 5674 0
-5674 5675 0
-6 -5674 0
-6 5675 0
-5675 5676 0
-7 -5675 0
-7 5676 0
-8 -5676 0
-9 5677 0
-5677 5678 0
-10 -5677 0
-10 5678 0
-5678 5679 0
-11 -5678 0
-11 5679 0
-5679 5680 0
-12 -5679 0
-12 5680 0
-5680 5681 0
-13 -5680 0
-13 5681 0
-14 -5681 0
-15 5682 0
-5682 5683 0
-16 -5682 0
-16 5683 0
-5683 5684 0
-17 -5683 0
-17 5684 0
-5684 5685 0
-18 -5684 0
-18 5685 0
-5685 5686 0
-19 -5685 0
-19 5686 0
-5686 5687 0
-20 -5686 0
-20 5687 0
-5687 5688 0
-21 -5687 0
-21 5688 0
-22 -5688 0
-23 5689 0
-5689 5690 0
-24 -5689 0
-24 5690 0
-5690 5691 0
-25 -5690 0
-25 5691 0
-5691 5692 0
-26 -5691 0
-26 5692 0
-5692 5693 0
-27 -5692 0
-27 5693 0
-5693 5694 0
-28 -5693 0
-28 5694 0
-5694 5695 0
-29 -5694 0
-29 5695 0
-5695 5696 0
-30 -5695 0
-30 5696 0
-31 -5696 0
-32 5697 0
-5697 5698 0
-33 -5697 0
-33 5698 0
-5698 5699 0
-34 -5698 0
-34 5699 0
-5699 5700 0
-35 -5699 0
-35 5700 0
-5700 5701 0
-36 -5700 0
-36 5701 0
-5701 5702 0
-37 -5701 0
-37 5702 0
-5702 5703 0
-38 -5702 0
-38 5703 0
-5703 5704 0
-39 -5703 0
-39 5704 0
-5704 5705 0
-40 -5704 0
-40 5705 0
-5705 5706 0
-41 -5705 0
-41 5706 0
-42 -5706 0
-43 5707 0
-5707 5708 0
-44 -5707 0
-44 5708 0
-5708 5709 0
-45 -5708 0
-45 5709 0
-5709 5710 0
-46 -5709 0
-46 5710 0
-5710 5711 0
-47 -5710 0
-47 5711 0
-5711 5712 0
-48 -5711 0
-48 5712 0
-5712 5713 0
-49 -5712 0
-49 5713 0
-5713 5714 0
-50 -5713 0
-50 5714 0
-5714 5715 0
-51 -5714 0
-51 5715 0
-5715 5716 0
-52 -5715 0
-52 5716 0
-5716 5717 0
-53 -5716 0
-53 5717 0
-5717 5718 0
-54 -5717 0
-54 5718 0
-5718 5719 0
-55 -5718 0
-55 5719 0
-5719 5720 0
-56 -5719 0
-56 5720 0
-57 -5720 0
-58 5721 0
-5721 5722 0
-59 -5721 0
-59 5722 0
-5722 5723 0
-60 -5722 0
-60 5723 0
-5723 5724 0
-61 -5723 0
-61 5724 0
-5724 5725 0
-62 -5724 0
-62 5725 0
-5725 5726 0
-63 -5725 0
-63 5726 0
-5726 5727 0
-64 -5726 0
-64 5727 0
-5727 5728 0
-65 -5727 0
-65 5728 0
-5728 5729 0
-66 -5728 0
-66 5729 0
-5729 5730 0
-67 -5729 0
-67 5730 0
-5730 5731 0
-68 -5730 0
-68 5731 0
-5731 5732 0
-69 -5731 0
-69 5732 0
-5732 5733 0
-70 -5732 0
-70 5733 0
-5733 5734 0
-71 -5733 0
-71 5734 0
-5734 5735 0
-72 -5734 0
-72 5735 0
-5735 5736 0
-73 -5735 0
-73 5736 0
-5736 5737 0
-74 -5736 0
-74 5737 0
-75 -5737 0
-76 5738 0
-5738 5739 0
-77 -5738 0
-77 5739 0
-5739 5740 0
-78 -5739 0
-78 5740 0
-5740 5741 0
-79 -5740 0
-79 5741 0
-5741 5742 0
-80 -5741 0
-80 5742 0
-5742 5743 0
-81 -5742 0
-81 5743 0
-5743 5744 0
-82 -5743 0
-82 5744 0
-5744 5745 0
-83 -5744 0
-83 5745 0
-5745 5746 0
-84 -5745 0
-84 5746 0
-5746 5747 0
-85 -5746 0
-85 5747 0
-5747 5748 0
-86 -5747 0
-86 5748 0
-5748 5749 0
-87 -5748 0
-87 5749 0
-5749 5750 0
-88 -5749 0
-88 5750 0
-5750 5751 0
-89 -5750 0
-89 5751 0
-5751 5752 0
-90 -5751 0
-90 5752 0
-5752 5753 0
-91 -5752 0
-91 5753 0
-5753 5754 0
-92 -5753 0
-92 5754 0
-5754 5755 0
-93 -5754 0
-93 5755 0
-5755 5756 0
-94 -5755 0
-94 5756 0
-95 -5756 0
-96 5757 0
-5757 5758 0
-97 -5757 0
-97 5758 0
-5758 5759 0
-98 -5758 0
-98 5759 0
-5759 5760 0
-99 -5759 0
-99 5760 0
-5760 5761 0
-100 -5760 0
-100 5761 0
-5761 5762 0
-101 -5761 0
-101 5762 0
-5762 5763 0
-102 -5762 0
-102 5763 0
-5763 5764 0
-103 -5763 0
-103 5764 0
-5764 5765 0
-104 -5764 0
-104 5765 0
-5765 5766 0
-105 -5765 0
-105 5766 0
-5766 5767 0
-106 -5766 0
-106 5767 0
-5767 5768 0
-107 -5767 0
-107 5768 0
-5768 5769 0
-108 -5768 0
-108 5769 0
-5769 5770 0
-109 -5769 0
-109 5770 0
-5770 5771 0
-110 -5770 0
-110 5771 0
-5771 5772 0
-111 -5771 0
-111 5772 0
-5772 5773 0
-112 -5772 0
-112 5773 0
-5773 5774 0
-113 -5773 0
-113 5774 0
-5774 5775 0
-114 -5774 0
-114 5775 0
-5775 5776 0
-115 -5775 0
-115 5776 0
-5776 5777 0
-116 -5776 0
-116 5777 0
-5777 5778 0
-117 -5777 0
-117 5778 0
-5778 5779 0
-118 -5778 0
-118 5779 0
-5779 5780 0
-119 -5779 0
-119 5780 0
-5780 5781 0
-120 -5780 0
-120 5781 0
-5781 5782 0
-121 -5781 0
-121 5782 0
-5782 5783 0
-122 -5782 0
-122 5783 0
-5783 5784 0
-123 -5783 0
-123 5784 0
-5784 5785 0
-124 -5784 0
-124 5785 0
-125 -5785 0
-126 5786 0
-5786 5787 0
-127 -5786 0
-127 5787 0
-5787 5788 0
-128 -5787 0
-128 5788 0
-5788 5789 0
-129 -5788 0
-129 5789 0
-5789 5790 0
-130 -5789 0
-130 5790 0
-5790 5791 0
-131 -5790 0
-131 5791 0
-5791 5792 0
-132 -5791 0
-132 5792 0
-5792 5793 0
-133 -5792 0
-133 5793 0
-5793 5794 0
-134 -5793 0
-134 5794 0
-5794 5795 0
-135 -5794 0
-135 5795 0
-5795 5796 0
-136 -5795 0
-136 5796 0
-5796 5797 0
-137 -5796 0
-137 5797 0
-5797 5798 0
-138 -5797 0
-138 5798 0
-5798 5799 0
-139 -5798 0
-139 5799 0
-5799 5800 0
-140 -5799 0
-140 5800 0
-5800 5801 0
-141 -5800 0
-141 5801 0
-5801 5802 0
-142 -5801 0
-142 5802 0
-5802 5803 0
-143 -5802 0
-143 5803 0
-5803 5804 0
-144 -5803 0
-144 5804 0
-5804 5805 0
-145 -5804 0
-145 5805 0
-5805 5806 0
-146 -5805 0
-146 5806 0
-5806 5807 0
-147 -5806 0
-147 5807 0
-5807 5808 0
-148 -5807 0
-148 5808 0
-5808 5809 0
-149 -5808 0
-149 5809 0
-5809 5810 0
-150 -5809 0
-150 5810 0
-5810 5811 0
-151 -5810 0
-151 5811 0
-5811 5812 0
-152 -5811 0
-152 5812 0
-5812 5813 0
-153 -5812 0
-153 5813 0
-5813 5814 0
-154 -5813 0
-154 5814 0
-5814 5815 0
-155 -5814 0
-155 5815 0
-5815 5816 0
-156 -5815 0
-156 5816 0
-5816 5817 0
-157 -5816 0
-157 5817 0
-158 -5817 0
-159 5818 0
-5818 5819 0
-160 -5818 0
-160 5819 0
-5819 5820 0
-161 -5819 0
-161 5820 0
-5820 5821 0
-162 -5820 0
-162 5821 0
-5821 5822 0
-163 -5821 0
-163 5822 0
-5822 5823 0
-164 -5822 0
-164 5823 0
-5823 5824 0
-165 -5823 0
-165 5824 0
-5824 5825 0
-166 -5824 0
-166 5825 0
-5825 5826 0
-167 -5825 0
-167 5826 0
-5826 5827 0
-168 -5826 0
-168 5827 0
-5827 5828 0
-169 -5827 0
-169 5828 0
-5828 5829 0
-170 -5828 0
-170 5829 0
-5829 5830 0
-171 -5829 0
-171 5830 0
-5830 5831 0
-172 -5830 0
-172 5831 0
-5831 5832 0
-173 -5831 0
-173 5832 0
-5832 5833 0
-174 -5832 0
-174 5833 0
-5833 5834 0
-175 -5833 0
-175 5834 0
-5834 5835 0
-176 -5834 0
-176 5835 0
-5835 5836 0
-177 -5835 0
-177 5836 0
-5836 5837 0
-178 -5836 0
-178 5837 0
-5837 5838 0
-179 -5837 0
-179 5838 0
-5838 5839 0
-180 -5838 0
-180 5839 0
-5839 5840 0
-181 -5839 0
-181 5840 0
-5840 5841 0
-182 -5840 0
-182 5841 0
-5841 5842 0
-183 -5841 0
-183 5842 0
-5842 5843 0
-184 -5842 0
-184 5843 0
-5843 5844 0
-185 -5843 0
-185 5844 0
-5844 5845 0
-186 -5844 0
-186 5845 0
-5845 5846 0
-187 -5845 0
-187 5846 0
-5846 5847 0
-188 -5846 0
-188 5847 0
-5847 5848 0
-189 -5847 0
-189 5848 0
-5848 5849 0
-190 -5848 0
-190 5849 0
-5849 5850 0
-191 -5849 0
-191 5850 0
-5850 5851 0
-192 -5850 0
-192 5851 0
-5851 5852 0
-193 -5851 0
-193 5852 0
-194 -5852 0
-195 5853 0
-5853 5854 0
-196 -5853 0
-196 5854 0
-5854 5855 0
-197 -5854 0
-197 5855 0
-5855 5856 0
-198 -5855 0
-198 5856 0
-5856 5857 0
-199 -5856 0
-199 5857 0
-5857 5858 0
-200 -5857 0
-200 5858 0
-5858 5859 0
-201 -5858 0
-201 5859 0
-5859 5860 0
-202 -5859 0
-202 5860 0
-5860 5861 0
-203 -5860 0
-203 5861 0
-5861 5862 0
-204 -5861 0
-204 5862 0
-5862 5863 0
-205 -5862 0
-205 5863 0
-5863 5864 0
-206 -5863 0
-206 5864 0
-5864 5865 0
-207 -5864 0
-207 5865 0
-5865 5866 0
-208 -5865 0
-208 5866 0
-5866 5867 0
-209 -5866 0
-209 5867 0
-5867 5868 0
-210 -5867 0
-210 5868 0
-5868 5869 0
-211 -5868 0
-211 5869 0
-5869 5870 0
-212 -5869 0
-212 5870 0
-5870 5871 0
-213 -5870 0
-213 5871 0
-5871 5872 0
-214 -5871 0
-214 5872 0
-5872 5873 0
-215 -5872 0
-215 5873 0
-5873 5874 0
-216 -5873 0
-216 5874 0
-5874 5875 0
-217 -5874 0
-217 5875 0
-5875 5876 0
-218 -5875 0
-218 5876 0
-5876 5877 0
-219 -5876 0
-219 5877 0
-5877 5878 0
-220 -5877 0
-220 5878 0
-5878 5879 0
-221 -5878 0
-221 5879 0
-5879 5880 0
-222 -5879 0
-222 5880 0
-5880 5881 0
-223 -5880 0
-223 5881 0
-5881 5882 0
-224 -5881 0
-224 5882 0
-5882 5883 0
-225 -5882 0
-225 5883 0
-5883 5884 0
-226 -5883 0
-226 5884 0
-5884 5885 0
-227 -5884 0
-227 5885 0
-5885 5886 0
-228 -5885 0
-228 5886 0
-5886 5887 0
-229 -5886 0
-229 5887 0
-5887 5888 0
-230 -5887 0
-230 5888 0
-5888 5889 0
-231 -5888 0
-231 5889 0
-5889 5890 0
-232 -5889 0
-232 5890 0
-5890 5891 0
-233 -5890 0
-233 5891 0
-5891 5892 0
-234 -5891 0
-234 5892 0
-5892 5893 0
-235 -5892 0
-235 5893 0
-5893 5894 0
-236 -5893 0
-236 5894 0
-5894 5895 0
-237 -5894 0
-237 5895 0
-238 -5895 0
-239 5896 0
-5896 5897 0
-240 -5896 0
-240 5897 0
-5897 5898 0
-241 -5897 0
-241 5898 0
-5898 5899 0
-242 -5898 0
-242 5899 0
-5899 5900 0
-243 -5899 0
-243 5900 0
-5900 5901 0
-244 -5900 0
-244 5901 0
-5901 5902 0
-245 -5901 0
-245 5902 0
-5902 5903 0
-246 -5902 0
-246 5903 0
-5903 5904 0
-247 -5903 0
-247 5904 0
-5904 5905 0
-248 -5904 0
-248 5905 0
-5905 5906 0
-249 -5905 0
-249 5906 0
-5906 5907 0
-250 -5906 0
-250 5907 0
-5907 5908 0
-251 -5907 0
-251 5908 0
-5908 5909 0
-252 -5908 0
-252 5909 0
-5909 5910 0
-253 -5909 0
-253 5910 0
-5910 5911 0
-254 -5910 0
-254 5911 0
-5911 5912 0
-255 -5911 0
-255 5912 0
-5912 5913 0
-256 -5912 0
-256 5913 0
-5913 5914 0
-257 -5913 0
-257 5914 0
-5914 5915 0
-258 -5914 0
-258 5915 0
-5915 5916 0
-259 -5915 0
-259 5916 0
-5916 5917 0
-260 -5916 0
-260 5917 0
-5917 5918 0
-261 -5917 0
-261 5918 0
-5918 5919 0
-262 -5918 0
-262 5919 0
-5919 5920 0
-263 -5919 0
-263 5920 0
-5920 5921 0
-264 -5920 0
-264 5921 0
-5921 5922 0
-265 -5921 0
-265 5922 0
-5922 5923 0
-266 -5922 0
-266 5923 0
-5923 5924 0
-267 -5923 0
-267 5924 0
-5924 5925 0
-268 -5924 0
-268 5925 0
-5925 5926 0
-269 -5925 0
-269 5926 0
-5926 5927 0
-270 -5926 0
-270 5927 0
-5927 5928 0
-271 -5927 0
-271 5928 0
-5928 5929 0
-272 -5928 0
-272 5929 0
-5929 5930 0
-273 -5929 0
-273 5930 0
-5930 5931 0
-274 -5930 0
-274 5931 0
-5931 5932 0
-275 -5931 0
-275 5932 0
-5932 5933 0
-276 -5932 0
-276 5933 0
-5933 5934 0
-277 -5933 0
-277 5934 0
-5934 5935 0
-278 -5934 0
-278 5935 0
-5935 5936 0
-279 -5935 0
-279 5936 0
-5936 5937 0
-280 -5936 0
-280 5937 0
-5937 5938 0
-281 -5937 0
-281 5938 0
-5938 5939 0
-282 -5938 0
-282 5939 0
-5939 5940 0
-283 -5939 0
-283 5940 0
-5940 5941 0
-284 -5940 0
-284 5941 0
-5941 5942 0
-285 -5941 0
-285 5942 0
-5942 5943 0
-286 -5942 0
-286 5943 0
-5943 5944 0
-287 -5943 0
-287 5944 0
-5944 5945 0
-288 -5944 0
-288 5945 0
-5945 5946 0
-289 -5945 0
-289 5946 0
-5946 5947 0
-290 -5946 0
-290 5947 0
-5947 5948 0
-291 -5947 0
-291 5948 0
-5948 5949 0
-292 -5948 0
-292 5949 0
-5949 5950 0
-293 -5949 0
-293 5950 0
-5950 5951 0
-294 -5950 0
-294 5951 0
-5951 5952 0
-295 -5951 0
-295 5952 0
-5952 5953 0
-296 -5952 0
-296 5953 0
-5953 5954 0
-297 -5953 0
-297 5954 0
-5954 5955 0
-298 -5954 0
-298 5955 0
-5955 5956 0
-299 -5955 0
-299 5956 0
-5956 5957 0
-300 -5956 0
-300 5957 0
-5957 5958 0
-301 -5957 0
-301 5958 0
-5958 5959 0
-302 -5958 0
-302 5959 0
-5959 5960 0
-303 -5959 0
-303 5960 0
-5960 5961 0
-304 -5960 0
-304 5961 0
-5961 5962 0
-305 -5961 0
-305 5962 0
-5962 5963 0
-306 -5962 0
-306 5963 0
-5963 5964 0
-307 -5963 0
-307 5964 0
-5964 5965 0
-308 -5964 0
-308 5965 0
-5965 5966 0
-309 -5965 0
-309 5966 0
-5966 5967 0
-310 -5966 0
-310 5967 0
-5967 5968 0
-311 -5967 0
-311 5968 0
-5968 5969 0
-312 -5968 0
-312 5969 0
-5969 5970 0
-313 -5969 0
-313 5970 0
-5970 5971 0
-314 -5970 0
-314 5971 0
-5971 5972 0
-315 -5971 0
-315 5972 0
-5972 5973 0
-316 -5972 0
-316 5973 0
-5973 5974 0
-317 -5973 0
-317 5974 0
-5974 5975 0
-318 -5974 0
-318 5975 0
-5975 5976 0
-319 -5975 0
-319 5976 0
-5976 5977 0
-320 -5976 0
-320 5977 0
-5977 5978 0
-321 -5977 0
-321 5978 0
-5978 5979 0
-322 -5978 0
-322 5979 0
-5979 5980 0
-323 -5979 0
-323 5980 0
-5980 5981 0
-324 -5980 0
-324 5981 0
-5981 5982 0
-325 -5981 0
-325 5982 0
-5982 5983 0
-326 -5982 0
-326 5983 0
-5983 5984 0
-327 -5983 0
-327 5984 0
-328 -5984 0
-329 5985 0
-5985 5986 0
-330 -5985 0
-330 5986 0
-5986 5987 0
-331 -5986 0
-331 5987 0
-5987 5988 0
-332 -5987 0
-332 5988 0
-5988 5989 0
-333 -5988 0
-333 5989 0
-5989 5990 0
-334 -5989 0
-334 5990 0
-5990 5991 0
-335 -5990 0
-335 5991 0
-5991 5992 0
-336 -5991 0
-336 5992 0
-5992 5993 0
-337 -5992 0
-337 5993 0
-5993 5994 0
-338 -5993 0
-338 5994 0
-5994 5995 0
-339 -5994 0
-339 5995 0
-5995 5996 0
-340 -5995 0
-340 5996 0
-5996 5997 0
-341 -5996 0
-341 5997 0
-5997 5998 0
-342 -5997 0
-342 5998 0
-5998 5999 0
-343 -5998 0
-343 5999 0
-5999 6000 0
-344 -5999 0
-344 6000 0
-6000 6001 0
-345 -6000 0
-345 6001 0
-6001 6002 0
-346 -6001 0
-346 6002 0
-6002 6003 0
-347 -6002 0
-347 6003 0
-6003 6004 0
-348 -6003 0
-348 6004 0
-6004 6005 0
-349 -6004 0
-349 6005 0
-6005 6006 0
-350 -6005 0
-350 6006 0
-6006 6007 0
-351 -6006 0
-351 6007 0
-6007 6008 0
-352 -6007 0
-352 6008 0
-6008 6009 0
-353 -6008 0
-353 6009 0
-6009 6010 0
-354 -6009 0
-354 6010 0
-6010 6011 0
-355 -6010 0
-355 6011 0
-6011 6012 0
-356 -6011 0
-356 6012 0
-6012 6013 0
-357 -6012 0
-357 6013 0
-6013 6014 0
-358 -6013 0
-358 6014 0
-6014 6015 0
-359 -6014 0
-359 6015 0
-6015 6016 0
-360 -6015 0
-360 6016 0
-6016 6017 0
-361 -6016 0
-361 6017 0
-6017 6018 0
-362 -6017 0
-362 6018 0
-6018 6019 0
-363 -6018 0
-363 6019 0
-6019 6020 0
-364 -6019 0
-364 6020 0
-6020 6021 0
-365 -6020 0
-365 6021 0
-6021 6022 0
-366 -6021 0
-366 6022 0
-6022 6023 0
-367 -6022 0
-367 6023 0
-6023 6024 0
-368 -6023 0
-368 6024 0
-6024 6025 0
-369 -6024 0
-369 6025 0
-6025 6026 0
-370 -6025 0
-370 6026 0
-6026 6027 0
-371 -6026 0
-371 6027 0
-6027 6028 0
-372 -6027 0
-372 6028 0
-6028 6029 0
-373 -6028 0
-373 6029 0
-6029 6030 0
-374 -6029 0
-374 6030 0
-6030 6031 0
-375 -6030 0
-375 6031 0
-6031 6032 0
-376 -6031 0
-376 6032 0
-6032 6033 0
-377 -6032 0
-377 6033 0
-6033 6034 0
-378 -6033 0
-378 6034 0
-6034 6035 0
-379 -6034 0
-379 6035 0
-6035 6036 0
-380 -6035 0
-380 6036 0
-6036 6037 0
-381 -6036 0
-381 6037 0
-6037 6038 0
-382 -6037 0
-382 6038 0
-6038 6039 0
-383 -6038 0
-383 6039 0
-6039 6040 0
-384 -6039 0
-384 6040 0
-6040 6041 0
-385 -6040 0
-385 6041 0
-6041 6042 0
-386 -6041 0
-386 6042 0
-6042 6043 0
-387 -6042 0
-387 6043 0
-6043 6044 0
-388 -6043 0
-388 6044 0
-6044 6045 0
-389 -6044 0
-389 6045 0
-6045 6046 0
-390 -6045 0
-390 6046 0
-6046 6047 0
-391 -6046 0
-391 6047 0
-6047 6048 0
-392 -6047 0
-392 6048 0
-6048 6049 0
-393 -6048 0
-393 6049 0
-6049 6050 0
-394 -6049 0
-394 6050 0
-6050 6051 0
-395 -6050 0
-395 6051 0
-6051 6052 0
-396 -6051 0
-396 6052 0
-6052 6053 0
-397 -6052 0
-397 6053 0
-6053 6054 0
-398 -6053 0
-398 6054 0
-6054 6055 0
-399 -6054 0
-399 6055 0
-6055 6056 0
-400 -6055 0
-400 6056 0
-6056 6057 0
-401 -6056 0
-401 6057 0
-6057 6058 0
-402 -6057 0
-402 6058 0
-6058 6059 0
-403 -6058 0
-403 6059 0
-6059 6060 0
-404 -6059 0
-404 6060 0
-6060 6061 0
-405 -6060 0
-405 6061 0
-6061 6062 0
-406 -6061 0
-406 6062 0
-6062 6063 0
-407 -6062 0
-407 6063 0
-6063 6064 0
-408 -6063 0
-408 6064 0
-6064 6065 0
-409 -6064 0
-409 6065 0
-6065 6066 0
-410 -6065 0
-410 6066 0
-6066 6067 0
-411 -6066 0
-411 6067 0
-6067 6068 0
-412 -6067 0
-412 6068 0
-6068 6069 0
-413 -6068 0
-413 6069 0
-6069 6070 0
-414 -6069 0
-414 6070 0
-6070 6071 0
-415 -6070 0
-415 6071 0
-6071 6072 0
-416 -6071 0
-416 6072 0
-6072 6073 0
-417 -6072 0
-417 6073 0
-6073 6074 0
-418 -6073 0
-418 6074 0
-6074 6075 0
-419 -6074 0
-419 6075 0
-6075 6076 0
-420 -6075 0
-420 6076 0
-6076 6077 0
-421 -6076 0
-421 6077 0
-6077 6078 0
-422 -6077 0
-422 6078 0
-6078 6079 0
-423 -6078 0
-423 6079 0
-6079 6080 0
-424 -6079 0
-424 6080 0
-6080 6081 0
-425 -6080 0
-425 6081 0
-6081 6082 0
-426 -6081 0
-426 6082 0
-427 -6082 0
-428 6083 0
-6083 6084 0
-429 -6083 0
-429 6084 0
-6084 6085 0
-430 -6084 0
-430 6085 0
-6085 6086 0
-431 -6085 0
-431 6086 0
-6086 6087 0
-432 -6086 0
-432 6087 0
-6087 6088 0
-433 -6087 0
-433 6088 0
-6088 6089 0
-434 -6088 0
-434 6089 0
-6089 6090 0
-435 -6089 0
-435 6090 0
-6090 6091 0
-436 -6090 0
-436 6091 0
-6091 6092 0
-437 -6091 0
-437 6092 0
-6092 6093 0
-438 -6092 0
-438 6093 0
-6093 6094 0
-439 -6093 0
-439 6094 0
-6094 6095 0
-440 -6094 0
-440 6095 0
-6095 6096 0
-441 -6095 0
-441 6096 0
-6096 6097 0
-442 -6096 0
-442 6097 0
-6097 6098 0
-443 -6097 0
-443 6098 0
-6098 6099 0
-444 -6098 0
-444 6099 0
-6099 6100 0
-445 -6099 0
-445 6100 0
-6100 6101 0
-446 -6100 0
-446 6101 0
-6101 6102 0
-447 -6101 0
-447 6102 0
-6102 6103 0
-448 -6102 0
-448 6103 0
-6103 6104 0
-449 -6103 0
-449 6104 0
-6104 6105 0
-450 -6104 0
-450 6105 0
-6105 6106 0
-451 -6105 0
-451 6106 0
-6106 6107 0
-452 -6106 0
-452 6107 0
-6107 6108 0
-453 -6107 0
-453 6108 0
-6108 6109 0
-454 -6108 0
-454 6109 0
-6109 6110 0
-455 -6109 0
-455 6110 0
-6110 6111 0
-456 -6110 0
-456 6111 0
-6111 6112 0
-457 -6111 0
-457 6112 0
-6112 6113 0
-458 -6112 0
-458 6113 0
-6113 6114 0
-459 -6113 0
-459 6114 0
-6114 6115 0
-460 -6114 0
-460 6115 0
-6115 6116 0
-461 -6115 0
-461 6116 0
-6116 6117 0
-462 -6116 0
-462 6117 0
-6117 6118 0
-463 -6117 0
-463 6118 0
-6118 6119 0
-464 -6118 0
-464 6119 0
-6119 6120 0
-465 -6119 0
-465 6120 0
-6120 6121 0
-466 -6120 0
-466 6121 0
-6121 6122 0
-467 -6121 0
-467 6122 0
-6122 6123 0
-468 -6122 0
-468 6123 0
-6123 6124 0
-469 -6123 0
-469 6124 0
-6124 6125 0
-470 -6124 0
-470 6125 0
-6125 6126 0
-471 -6125 0
-471 6126 0
-6126 6127 0
-472 -6126 0
-472 6127 0
-6127 6128 0
-473 -6127 0
-473 6128 0
-6128 6129 0
-474 -6128 0
-474 6129 0
-6129 6130 0
-475 -6129 0
-475 6130 0
-6130 6131 0
-476 -6130 0
-476 6131 0
-6131 6132 0
-477 -6131 0
-477 6132 0
-6132 6133 0
-478 -6132 0
-478 6133 0
-6133 6134 0
-479 -6133 0
-479 6134 0
-6134 6135 0
-480 -6134 0
-480 6135 0
-6135 6136 0
-481 -6135 0
-481 6136 0
-6136 6137 0
-482 -6136 0
-482 6137 0
-6137 6138 0
-483 -6137 0
-483 6138 0
-6138 6139 0
-484 -6138 0
-484 6139 0
-6139 6140 0
-485 -6139 0
-485 6140 0
-6140 6141 0
-486 -6140 0
-486 6141 0
-6141 6142 0
-487 -6141 0
-487 6142 0
-6142 6143 0
-488 -6142 0
-488 6143 0
-6143 6144 0
-489 -6143 0
-489 6144 0
-6144 6145 0
-490 -6144 0
-490 6145 0
-6145 6146 0
-491 -6145 0
-491 6146 0
-6146 6147 0
-492 -6146 0
-492 6147 0
-6147 6148 0
-493 -6147 0
-493 6148 0
-6148 6149 0
-494 -6148 0
-494 6149 0
-6149 6150 0
-495 -6149 0
-495 6150 0
-6150 6151 0
-496 -6150 0
-496 6151 0
-6151 6152 0
-497 -6151 0
-497 6152 0
-6152 6153 0
-498 -6152 0
-498 6153 0
-6153 6154 0
-499 -6153 0
-499 6154 0
-6154 6155 0
-500 -6154 0
-500 6155 0
-6155 6156 0
-501 -6155 0
-501 6156 0
-6156 6157 0
-502 -6156 0
-502 6157 0
-6157 6158 0
-503 -6157 0
-503 6158 0
-6158 6159 0
-504 -6158 0
-504 6159 0
-6159 6160 0
-505 -6159 0
-505 6160 0
-6160 6161 0
-506 -6160 0
-506 6161 0
-6161 6162 0
-507 -6161 0
-507 6162 0
-6162 6163 0
-508 -6162 0
-508 6163 0
-6163 6164 0
-509 -6163 0
-509 6164 0
-6164 6165 0
-510 -6164 0
-510 6165 0
-6165 6166 0
-511 -6165 0
-511 6166 0
-6166 6167 0
-512 -6166 0
-512 6167 0
-6167 6168 0
-513 -6167 0
-513 6168 0
-6168 6169 0
-514 -6168 0
-514 6169 0
-6169 6170 0
-515 -6169 0
-515 6170 0
-6170 6171 0
-516 -6170 0
-516 6171 0
-6171 6172 0
-517 -6171 0
-517 6172 0
-6172 6173 0
-518 -6172 0
-518 6173 0
-6173 6174 0
-519 -6173 0
-519 6174 0
-6174 6175 0
-520 -6174 0
-520 6175 0
-6175 6176 0
-521 -6175 0
-521 6176 0
-6176 6177 0
-522 -6176 0
-522 6177 0
-6177 6178 0
-523 -6177 0
-523 6178 0
-6178 6179 0
-524 -6178 0
-524 6179 0
-6179 6180 0
-525 -6179 0
-525 6180 0
-6180 6181 0
-526 -6180 0
-526 6181 0
-6181 6182 0
-527 -6181 0
-527 6182 0
-6182 6183 0
-528 -6182 0
-528 6183 0
-6183 6184 0
-529 -6183 0
-529 6184 0
-6184 6185 0
-530 -6184 0
-530 6185 0
-6185 6186 0
-531 -6185 0
-531 6186 0
-6186 6187 0
-532 -6186 0
-532 6187 0
-6187 6188 0
-533 -6187 0
-533 6188 0
-6188 6189 0
-534 -6188 0
-534 6189 0
-6189 6190 0
-535 -6189 0
-535 6190 0
-6190 6191 0
-536 -6190 0
-536 6191 0
-6191 6192 0
-537 -6191 0
-537 6192 0
-6192 6193 0
-538 -6192 0
-538 6193 0
-6193 6194 0
-539 -6193 0
-539 6194 0
-6194 6195 0
-540 -6194 0
-540 6195 0
-6195 6196 0
-541 -6195 0
-541 6196 0
-6196 6197 0
-542 -6196 0
-542 6197 0
-6197 6198 0
-543 -6197 0
-543 6198 0
-6198 6199 0
-544 -6198 0
-544 6199 0
-6199 6200 0
-545 -6199 0
-545 6200 0
-6200 6201 0
-546 -6200 0
-546 6201 0
-547 -6201 0
-548 6202 0
-6202 6203 0
-549 -6202 0
-549 6203 0
-6203 6204 0
-550 -6203 0
-550 6204 0
-6204 6205 0
-551 -6204 0
-551 6205 0
-6205 6206 0
-552 -6205 0
-552 6206 0
-6206 6207 0
-553 -6206 0
-553 6207 0
-6207 6208 0
-554 -6207 0
-554 6208 0
-6208 6209 0
-555 -6208 0
-555 6209 0
-6209 6210 0
-556 -6209 0
-556 6210 0
-6210 6211 0
-557 -6210 0
-557 6211 0
-6211 6212 0
-558 -6211 0
-558 6212 0
-6212 6213 0
-559 -6212 0
-559 6213 0
-6213 6214 0
-560 -6213 0
-560 6214 0
-6214 6215 0
-561 -6214 0
-561 6215 0
-6215 6216 0
-562 -6215 0
-562 6216 0
-6216 6217 0
-563 -6216 0
-563 6217 0
-6217 6218 0
-564 -6217 0
-564 6218 0
-6218 6219 0
-565 -6218 0
-565 6219 0
-6219 6220 0
-566 -6219 0
-566 6220 0
-6220 6221 0
-567 -6220 0
-567 6221 0
-6221 6222 0
-568 -6221 0
-568 6222 0
-6222 6223 0
-569 -6222 0
-569 6223 0
-6223 6224 0
-570 -6223 0
-570 6224 0
-6224 6225 0
-571 -6224 0
-571 6225 0
-6225 6226 0
-572 -6225 0
-572 6226 0
-6226 6227 0
-573 -6226 0
-573 6227 0
-6227 6228 0
-574 -6227 0
-574 6228 0
-6228 6229 0
-575 -6228 0
-575 6229 0
-6229 6230 0
-576 -6229 0
-576 6230 0
-6230 6231 0
-577 -6230 0
-577 6231 0
-6231 6232 0
-578 -6231 0
-578 6232 0
-6232 6233 0
-579 -6232 0
-579 6233 0
-6233 6234 0
-580 -6233 0
-580 6234 0
-6234 6235 0
-581 -6234 0
-581 6235 0
-6235 6236 0
-582 -6235 0
-582 6236 0
-6236 6237 0
-583 -6236 0
-583 6237 0
-6237 6238 0
-584 -6237 0
-584 6238 0
-6238 6239 0
-585 -6238 0
-585 6239 0
-6239 6240 0
-586 -6239 0
-586 6240 0
-6240 6241 0
-587 -6240 0
-587 6241 0
-6241 6242 0
-588 -6241 0
-588 6242 0
-6242 6243 0
-589 -6242 0
-589 6243 0
-6243 6244 0
-590 -6243 0
-590 6244 0
-6244 6245 0
-591 -6244 0
-591 6245 0
-6245 6246 0
-592 -6245 0
-592 6246 0
-6246 6247 0
-593 -6246 0
-593 6247 0
-6247 6248 0
-594 -6247 0
-594 6248 0
-6248 6249 0
-595 -6248 0
-595 6249 0
-6249 6250 0
-596 -6249 0
-596 6250 0
-6250 6251 0
-597 -6250 0
-597 6251 0
-6251 6252 0
-598 -6251 0
-598 6252 0
-6252 6253 0
-599 -6252 0
-599 6253 0
-6253 6254 0
-600 -6253 0
-600 6254 0
-6254 6255 0
-601 -6254 0
-601 6255 0
-6255 6256 0
-602 -6255 0
-602 6256 0
-6256 6257 0
-603 -6256 0
-603 6257 0
-6257 6258 0
-604 -6257 0
-604 6258 0
-6258 6259 0
-605 -6258 0
-605 6259 0
-6259 6260 0
-606 -6259 0
-606 6260 0
-6260 6261 0
-607 -6260 0
-607 6261 0
-6261 6262 0
-608 -6261 0
-608 6262 0
-6262 6263 0
-609 -6262 0
-609 6263 0
-6263 6264 0
-610 -6263 0
-610 6264 0
-6264 6265 0
-611 -6264 0
-611 6265 0
-6265 6266 0
-612 -6265 0
-612 6266 0
-6266 6267 0
-613 -6266 0
-613 6267 0
-6267 6268 0
-614 -6267 0
-614 6268 0
-6268 6269 0
-615 -6268 0
-615 6269 0
-6269 6270 0
-616 -6269 0
-616 6270 0
-6270 6271 0
-617 -6270 0
-617 6271 0
-6271 6272 0
-618 -6271 0
-618 6272 0
-6272 6273 0
-619 -6272 0
-619 6273 0
-6273 6274 0
-620 -6273 0
-620 6274 0
-6274 6275 0
-621 -6274 0
-621 6275 0
-6275 6276 0
-622 -6275 0
-622 6276 0
-6276 6277 0
-623 -6276 0
-623 6277 0
-6277 6278 0
-624 -6277 0
-624 6278 0
-6278 6279 0
-625 -6278 0
-625 6279 0
-6279 6280 0
-626 -6279 0
-626 6280 0
-6280 6281 0
-627 -6280 0
-627 6281 0
-6281 6282 0
-628 -6281 0
-628 6282 0
-6282 6283 0
-629 -6282 0
-629 6283 0
-6283 6284 0
-630 -6283 0
-630 6284 0
-6284 6285 0
-631 -6284 0
-631 6285 0
-6285 6286 0
-632 -6285 0
-632 6286 0
-6286 6287 0
-633 -6286 0
-633 6287 0
-6287 6288 0
-634 -6287 0
-634 6288 0
-6288 6289 0
-635 -6288 0
-635 6289 0
-6289 6290 0
-636 -6289 0
-636 6290 0
-6290 6291 0
-637 -6290 0
-637 6291 0
-6291 6292 0
-638 -6291 0
-638 6292 0
-6292 6293 0
-639 -6292 0
-639 6293 0
-6293 6294 0
-640 -6293 0
-640 6294 0
-6294 6295 0
-641 -6294 0
-641 6295 0
-6295 6296 0
-642 -6295 0
-642 6296 0
-6296 6297 0
-643 -6296 0
-643 6297 0
-6297 6298 0
-644 -6297 0
-644 6298 0
-6298 6299 0
-645 -6298 0
-645 6299 0
-6299 6300 0
-646 -6299 0
-646 6300 0
-6300 6301 0
-647 -6300 0
-647 6301 0
-6301 6302 0
-648 -6301 0
-648 6302 0
-6302 6303 0
-649 -6302 0
-649 6303 0
-6303 6304 0
-650 -6303 0
-650 6304 0
-6304 6305 0
-651 -6304 0
-651 6305 0
-6305 6306 0
-652 -6305 0
-652 6306 0
-6306 6307 0
-653 -6306 0
-653 6307 0
-6307 6308 0
-654 -6307 0
-654 6308 0
-6308 6309 0
-655 -6308 0
-655 6309 0
-6309 6310 0
-656 -6309 0
-656 6310 0
-6310 6311 0
-657 -6310 0
-657 6311 0
-6311 6312 0
-658 -6311 0
-658 6312 0
-6312 6313 0
-659 -6312 0
-659 6313 0
-6313 6314 0
-660 -6313 0
-660 6314 0
-6314 6315 0
-661 -6314 0
-661 6315 0
-6315 6316 0
-662 -6315 0
-662 6316 0
-6316 6317 0
-663 -6316 0
-663 6317 0
-6317 6318 0
-664 -6317 0
-664 6318 0
-6318 6319 0
-665 -6318 0
-665 6319 0
-6319 6320 0
-666 -6319 0
-666 6320 0
-6320 6321 0
-667 -6320 0
-667 6321 0
-6321 6322 0
-668 -6321 0
-668 6322 0
-6322 6323 0
-669 -6322 0
-669 6323 0
-6323 6324 0
-670 -6323 0
-670 6324 0
-6324 6325 0
-671 -6324 0
-671 6325 0
-6325 6326 0
-672 -6325 0
-672 6326 0
-6326 6327 0
-673 -6326 0
-673 6327 0
-6327 6328 0
-674 -6327 0
-674 6328 0
-6328 6329 0
-675 -6328 0
-675 6329 0
-6329 6330 0
-676 -6329 0
-676 6330 0
-6330 6331 0
-677 -6330 0
-677 6331 0
-6331 6332 0
-678 -6331 0
-678 6332 0
-6332 6333 0
-679 -6332 0
-679 6333 0
-6333 6334 0
-680 -6333 0
-680 6334 0
-6334 6335 0
-681 -6334 0
-681 6335 0
-6335 6336 0
-682 -6335 0
-682 6336 0
-6336 6337 0
-683 -6336 0
-683 6337 0
-6337 6338 0
-684 -6337 0
-684 6338 0
-6338 6339 0
-685 -6338 0
-685 6339 0
-6339 6340 0
-686 -6339 0
-686 6340 0
-6340 6341 0
-687 -6340 0
-687 6341 0
-6341 6342 0
-688 -6341 0
-688 6342 0
-6342 6343 0
-689 -6342 0
-689 6343 0
-6343 6344 0
-690 -6343 0
-690 6344 0
-6344 6345 0
-691 -6344 0
-691 6345 0
-6345 6346 0
-692 -6345 0
-692 6346 0
-6346 6347 0
-693 -6346 0
-693 6347 0
-6347 6348 0
-694 -6347 0
-694 6348 0
-6348 6349 0
-695 -6348 0
-695 6349 0
-6349 6350 0
-696 -6349 0
-696 6350 0
-6350 6351 0
-697 -6350 0
-697 6351 0
-6351 6352 0
-698 -6351 0
-698 6352 0
-6352 6353 0
-699 -6352 0
-699 6353 0
-6353 6354 0
-700 -6353 0
-700 6354 0
-6354 6355 0
-701 -6354 0
-701 6355 0
-6355 6356 0
-702 -6355 0
-702 6356 0
-6356 6357 0
-703 -6356 0
-703 6357 0
-6357 6358 0
-704 -6357 0
-704 6358 0
-6358 6359 0
-705 -6358 0
-705 6359 0
-6359 6360 0
-706 -6359 0
-706 6360 0
-6360 6361 0
-707 -6360 0
-707 6361 0
-6361 6362 0
-708 -6361 0
-708 6362 0
-6362 6363 0
-709 -6362 0
-709 6363 0
-6363 6364 0
-710 -6363 0
-710 6364 0
-6364 6365 0
-711 -6364 0
-711 6365 0
-712 -6365 0
-713 6366 0
-6366 6367 0
-714 -6366 0
-714 6367 0
-6367 6368 0
-715 -6367 0
-715 6368 0
-6368 6369 0
-716 -6368 0
-716 6369 0
-6369 6370 0
-717 -6369 0
-717 6370 0
-6370 6371 0
-718 -6370 0
-718 6371 0
-6371 6372 0
-719 -6371 0
-719 6372 0
-6372 6373 0
-720 -6372 0
-720 6373 0
-6373 6374 0
-721 -6373 0
-721 6374 0
-6374 6375 0
-722 -6374 0
-722 6375 0
-6375 6376 0
-723 -6375 0
-723 6376 0
-6376 6377 0
-724 -6376 0
-724 6377 0
-6377 6378 0
-725 -6377 0
-725 6378 0
-6378 6379 0
-726 -6378 0
-726 6379 0
-6379 6380 0
-727 -6379 0
-727 6380 0
-6380 6381 0
-728 -6380 0
-728 6381 0
-6381 6382 0
-729 -6381 0
-729 6382 0
-6382 6383 0
-730 -6382 0
-730 6383 0
-6383 6384 0
-731 -6383 0
-731 6384 0
-6384 6385 0
-732 -6384 0
-732 6385 0
-6385 6386 0
-733 -6385 0
-733 6386 0
-6386 6387 0
-734 -6386 0
-734 6387 0
-6387 6388 0
-735 -6387 0
-735 6388 0
-6388 6389 0
-736 -6388 0
-736 6389 0
-6389 6390 0
-737 -6389 0
-737 6390 0
-6390 6391 0
-738 -6390 0
-738 6391 0
-6391 6392 0
-739 -6391 0
-739 6392 0
-6392 6393 0
-740 -6392 0
-740 6393 0
-6393 6394 0
-741 -6393 0
-741 6394 0
-6394 6395 0
-742 -6394 0
-742 6395 0
-6395 6396 0
-743 -6395 0
-743 6396 0
-6396 6397 0
-744 -6396 0
-744 6397 0
-6397 6398 0
-745 -6397 0
-745 6398 0
-6398 6399 0
-746 -6398 0
-746 6399 0
-6399 6400 0
-747 -6399 0
-747 6400 0
-6400 6401 0
-748 -6400 0
-748 6401 0
-6401 6402 0
-749 -6401 0
-749 6402 0
-6402 6403 0
-750 -6402 0
-750 6403 0
-6403 6404 0
-751 -6403 0
-751 6404 0
-6404 6405 0
-752 -6404 0
-752 6405 0
-6405 6406 0
-753 -6405 0
-753 6406 0
-6406 6407 0
-754 -6406 0
-754 6407 0
-6407 6408 0
-755 -6407 0
-755 6408 0
-6408 6409 0
-756 -6408 0
-756 6409 0
-6409 6410 0
-757 -6409 0
-757 6410 0
-6410 6411 0
-758 -6410 0
-758 6411 0
-6411 6412 0
-759 -6411 0
-759 6412 0
-6412 6413 0
-760 -6412 0
-760 6413 0
-6413 6414 0
-761 -6413 0
-761 6414 0
-6414 6415 0
-762 -6414 0
-762 6415 0
-6415 6416 0
-763 -6415 0
-763 6416 0
-6416 6417 0
-764 -6416 0
-764 6417 0
-6417 6418 0
-765 -6417 0
-765 6418 0
-6418 6419 0
-766 -6418 0
-766 6419 0
-6419 6420 0
-767 -6419 0
-767 6420 0
-6420 6421 0
-768 -6420 0
-768 6421 0
-6421 6422 0
-769 -6421 0
-769 6422 0
-6422 6423 0
-770 -6422 0
-770 6423 0
-6423 6424 0
-771 -6423 0
-771 6424 0
-6424 6425 0
-772 -6424 0
-772 6425 0
-6425 6426 0
-773 -6425 0
-773 6426 0
-6426 6427 0
-774 -6426 0
-774 6427 0
-6427 6428 0
-775 -6427 0
-775 6428 0
-6428 6429 0
-776 -6428 0
-776 6429 0
-6429 6430 0
-777 -6429 0
-777 6430 0
-6430 6431 0
-778 -6430 0
-778 6431 0
-6431 6432 0
-779 -6431 0
-779 6432 0
-6432 6433 0
-780 -6432 0
-780 6433 0
-6433 6434 0
-781 -6433 0
-781 6434 0
-6434 6435 0
-782 -6434 0
-782 6435 0
-6435 6436 0
-783 -6435 0
-783 6436 0
-6436 6437 0
-784 -6436 0
-784 6437 0
-6437 6438 0
-785 -6437 0
-785 6438 0
-6438 6439 0
-786 -6438 0
-786 6439 0
-6439 6440 0
-787 -6439 0
-787 6440 0
-6440 6441 0
-788 -6440 0
-788 6441 0
-6441 6442 0
-789 -6441 0
-789 6442 0
-6442 6443 0
-790 -6442 0
-790 6443 0
-6443 6444 0
-791 -6443 0
-791 6444 0
-6444 6445 0
-792 -6444 0
-792 6445 0
-6445 6446 0
-793 -6445 0
-793 6446 0
-6446 6447 0
-794 -6446 0
-794 6447 0
-6447 6448 0
-795 -6447 0
-795 6448 0
-6448 6449 0
-796 -6448 0
-796 6449 0
-6449 6450 0
-797 -6449 0
-797 6450 0
-6450 6451 0
-798 -6450 0
-798 6451 0
-6451 6452 0
-799 -6451 0
-799 6452 0
-6452 6453 0
-800 -6452 0
-800 6453 0
-6453 6454 0
-801 -6453 0
-801 6454 0
-6454 6455 0
-802 -6454 0
-802 6455 0
-6455 6456 0
-803 -6455 0
-803 6456 0
-6456 6457 0
-804 -6456 0
-804 6457 0
-6457 6458 0
-805 -6457 0
-805 6458 0
-6458 6459 0
-806 -6458 0
-806 6459 0
-6459 6460 0
-807 -6459 0
-807 6460 0
-6460 6461 0
-808 -6460 0
-808 6461 0
-6461 6462 0
-809 -6461 0
-809 6462 0
-6462 6463 0
-810 -6462 0
-810 6463 0
-6463 6464 0
-811 -6463 0
-811 6464 0
-6464 6465 0
-812 -6464 0
-812 6465 0
-6465 6466 0
-813 -6465 0
-813 6466 0
-6466 6467 0
-814 -6466 0
-814 6467 0
-6467 6468 0
-815 -6467 0
-815 6468 0
-6468 6469 0
-816 -6468 0
-816 6469 0
-6469 6470 0
-817 -6469 0
-817 6470 0
-6470 6471 0
-818 -6470 0
-818 6471 0
-6471 6472 0
-819 -6471 0
-819 6472 0
-6472 6473 0
-820 -6472 0
-820 6473 0
-6473 6474 0
-821 -6473 0
-821 6474 0
-6474 6475 0
-822 -6474 0
-822 6475 0
-6475 6476 0
-823 -6475 0
-823 6476 0
-6476 6477 0
-824 -6476 0
-824 6477 0
-6477 6478 0
-825 -6477 0
-825 6478 0
-6478 6479 0
-826 -6478 0
-826 6479 0
-6479 6480 0
-827 -6479 0
-827 6480 0
-6480 6481 0
-828 -6480 0
-828 6481 0
-6481 6482 0
-829 -6481 0
-829 6482 0
-6482 6483 0
-830 -6482 0
-830 6483 0
-6483 6484 0
-831 -6483 0
-831 6484 0
-6484 6485 0
-832 -6484 0
-832 6485 0
-6485 6486 0
-833 -6485 0
-833 6486 0
-6486 6487 0
-834 -6486 0
-834 6487 0
-6487 6488 0
-835 -6487 0
-835 6488 0
-6488 6489 0
-836 -6488 0
-836 6489 0
-6489 6490 0
-837 -6489 0
-837 6490 0
-6490 6491 0
-838 -6490 0
-838 6491 0
-6491 6492 0
-839 -6491 0
-839 6492 0
-6492 6493 0
-840 -6492 0
-840 6493 0
-6493 6494 0
-841 -6493 0
-841 6494 0
-6494 6495 0
-842 -6494 0
-842 6495 0
-6495 6496 0
-843 -6495 0
-843 6496 0
-6496 6497 0
-844 -6496 0
-844 6497 0
-6497 6498 0
-845 -6497 0
-845 6498 0
-6498 6499 0
-846 -6498 0
-846 6499 0
-6499 6500 0
-847 -6499 0
-847 6500 0
-6500 6501 0
-848 -6500 0
-848 6501 0
-6501 6502 0
-849 -6501 0
-849 6502 0
-6502 6503 0
-850 -6502 0
-850 6503 0
-6503 6504 0
-851 -6503 0
-851 6504 0
-6504 6505 0
-852 -6504 0
-852 6505 0
-6505 6506 0
-853 -6505 0
-853 6506 0
-6506 6507 0
-854 -6506 0
-854 6507 0
-6507 6508 0
-855 -6507 0
-855 6508 0
-6508 6509 0
-856 -6508 0
-856 6509 0
-6509 6510 0
-857 -6509 0
-857 6510 0
-6510 6511 0
-858 -6510 0
-858 6511 0
-6511 6512 0
-859 -6511 0
-859 6512 0
-6512 6513 0
-860 -6512 0
-860 6513 0
-6513 6514 0
-861 -6513 0
-861 6514 0
-6514 6515 0
-862 -6514 0
-862 6515 0
-6515 6516 0
-863 -6515 0
-863 6516 0
-6516 6517 0
-864 -6516 0
-864 6517 0
-6517 6518 0
-865 -6517 0
-865 6518 0
-6518 6519 0
-866 -6518 0
-866 6519 0
-6519 6520 0
-867 -6519 0
-867 6520 0
-6520 6521 0
-868 -6520 0
-868 6521 0
-6521 6522 0
-869 -6521 0
-869 6522 0
-6522 6523 0
-870 -6522 0
-870 6523 0
-6523 6524 0
-871 -6523 0
-871 6524 0
-6524 6525 0
-872 -6524 0
-872 6525 0
-6525 6526 0
-873 -6525 0
-873 6526 0
-6526 6527 0
-874 -6526 0
-874 6527 0
-6527 6528 0
-875 -6527 0
-875 6528 0
-6528 6529 0
-876 -6528 0
-876 6529 0
-6529 6530 0
-877 -6529 0
-877 6530 0
-6530 6531 0
-878 -6530 0
-878 6531 0
-6531 6532 0
-879 -6531 0
-879 6532 0
-6532 6533 0
-880 -6532 0
-880 6533 0
-6533 6534 0
-881 -6533 0
-881 6534 0
-6534 6535 0
-882 -6534 0
-882 6535 0
-6535 6536 0
-883 -6535 0
-883 6536 0
-6536 6537 0
-884 -6536 0
-884 6537 0
-6537 6538 0
-885 -6537 0
-885 6538 0
-6538 6539 0
-886 -6538 0
-886 6539 0
-6539 6540 0
-887 -6539 0
-887 6540 0
-6540 6541 0
-888 -6540 0
-888 6541 0
-6541 6542 0
-889 -6541 0
-889 6542 0
-6542 6543 0
-890 -6542 0
-890 6543 0
-6543 6544 0
-891 -6543 0
-891 6544 0
-6544 6545 0
-892 -6544 0
-892 6545 0
-6545 6546 0
-893 -6545 0
-893 6546 0
-6546 6547 0
-894 -6546 0
-894 6547 0
-6547 6548 0
-895 -6547 0
-895 6548 0
-6548 6549 0
-896 -6548 0
-896 6549 0
-6549 6550 0
-897 -6549 0
-897 6550 0
-6550 6551 0
-898 -6550 0
-898 6551 0
-6551 6552 0
-899 -6551 0
-899 6552 0
-6552 6553 0
-900 -6552 0
-900 6553 0
-6553 6554 0
-901 -6553 0
-901 6554 0
-6554 6555 0
-902 -6554 0
-902 6555 0
-6555 6556 0
-903 -6555 0
-903 6556 0
-6556 6557 0
-904 -6556 0
-904 6557 0
-6557 6558 0
-905 -6557 0
-905 6558 0
-6558 6559 0
-906 -6558 0
-906 6559 0
-6559 6560 0
-907 -6559 0
-907 6560 0
-6560 6561 0
-908 -6560 0
-908 6561 0
-6561 6562 0
-909 -6561 0
-909 6562 0
-910 -6562 0
-911 6563 0
-6563 6564 0
-912 -6563 0
-912 6564 0
-6564 6565 0
-913 -6564 0
-913 6565 0
-6565 6566 0
-914 -6565 0
-914 6566 0
-6566 6567 0
-915 -6566 0
-915 6567 0
-6567 6568 0
-916 -6567 0
-916 6568 0
-6568 6569 0
-917 -6568 0
-917 6569 0
-6569 6570 0
-918 -6569 0
-918 6570 0
-6570 6571 0
-919 -6570 0
-919 6571 0
-6571 6572 0
-920 -6571 0
-920 6572 0
-6572 6573 0
-921 -6572 0
-921 6573 0
-6573 6574 0
-922 -6573 0
-922 6574 0
-6574 6575 0
-923 -6574 0
-923 6575 0
-6575 6576 0
-924 -6575 0
-924 6576 0
-6576 6577 0
-925 -6576 0
-925 6577 0
-6577 6578 0
-926 -6577 0
-926 6578 0
-6578 6579 0
-927 -6578 0
-927 6579 0
-6579 6580 0
-928 -6579 0
-928 6580 0
-6580 6581 0
-929 -6580 0
-929 6581 0
-6581 6582 0
-930 -6581 0
-930 6582 0
-6582 6583 0
-931 -6582 0
-931 6583 0
-6583 6584 0
-932 -6583 0
-932 6584 0
-6584 6585 0
-933 -6584 0
-933 6585 0
-6585 6586 0
-934 -6585 0
-934 6586 0
-6586 6587 0
-935 -6586 0
-935 6587 0
-6587 6588 0
-936 -6587 0
-936 6588 0
-6588 6589 0
-937 -6588 0
-937 6589 0
-6589 6590 0
-938 -6589 0
-938 6590 0
-6590 6591 0
-939 -6590 0
-939 6591 0
-6591 6592 0
-940 -6591 0
-940 6592 0
-6592 6593 0
-941 -6592 0
-941 6593 0
-6593 6594 0
-942 -6593 0
-942 6594 0
-6594 6595 0
-943 -6594 0
-943 6595 0
-6595 6596 0
-944 -6595 0
-944 6596 0
-6596 6597 0
-945 -6596 0
-945 6597 0
-6597 6598 0
-946 -6597 0
-946 6598 0
-6598 6599 0
-947 -6598 0
-947 6599 0
-6599 6600 0
-948 -6599 0
-948 6600 0
-6600 6601 0
-949 -6600 0
-949 6601 0
-6601 6602 0
-950 -6601 0
-950 6602 0
-6602 6603 0
-951 -6602 0
-951 6603 0
-6603 6604 0
-952 -6603 0
-952 6604 0
-6604 6605 0
-953 -6604 0
-953 6605 0
-6605 6606 0
-954 -6605 0
-954 6606 0
-6606 6607 0
-955 -6606 0
-955 6607 0
-6607 6608 0
-956 -6607 0
-956 6608 0
-6608 6609 0
-957 -6608 0
-957 6609 0
-6609 6610 0
-958 -6609 0
-958 6610 0
-6610 6611 0
-959 -6610 0
-959 6611 0
-6611 6612 0
-960 -6611 0
-960 6612 0
-6612 6613 0
-961 -6612 0
-961 6613 0
-6613 6614 0
-962 -6613 0
-962 6614 0
-6614 6615 0
-963 -6614 0
-963 6615 0
-6615 6616 0
-964 -6615 0
-964 6616 0
-6616 6617 0
-965 -6616 0
-965 6617 0
-6617 6618 0
-966 -6617 0
-966 6618 0
-6618 6619 0
-967 -6618 0
-967 6619 0
-6619 6620 0
-968 -6619 0
-968 6620 0
-6620 6621 0
-969 -6620 0
-969 6621 0
-6621 6622 0
-970 -6621 0
-970 6622 0
-6622 6623 0
-971 -6622 0
-971 6623 0
-6623 6624 0
-972 -6623 0
-972 6624 0
-6624 6625 0
-973 -6624 0
-973 6625 0
-6625 6626 0
-974 -6625 0
-974 6626 0
-6626 6627 0
-975 -6626 0
-975 6627 0
-6627 6628 0
-976 -6627 0
-976 6628 0
-6628 6629 0
-977 -6628 0
-977 6629 0
-6629 6630 0
-978 -6629 0
-978 6630 0
-6630 6631 0
-979 -6630 0
-979 6631 0
-6631 6632 0
-980 -6631 0
-980 6632 0
-6632 6633 0
-981 -6632 0
-981 6633 0
-6633 6634 0
-982 -6633 0
-982 6634 0
-6634 6635 0
-983 -6634 0
-983 6635 0
-6635 6636 0
-984 -6635 0
-984 6636 0
-6636 6637 0
-985 -6636 0
-985 6637 0
-6637 6638 0
-986 -6637 0
-986 6638 0
-6638 6639 0
-987 -6638 0
-987 6639 0
-6639 6640 0
-988 -6639 0
-988 6640 0
-6640 6641 0
-989 -6640 0
-989 6641 0
-6641 6642 0
-990 -6641 0
-990 6642 0
-6642 6643 0
-991 -6642 0
-991 6643 0
-6643 6644 0
-992 -6643 0
-992 6644 0
-6644 6645 0
-993 -6644 0
-993 6645 0
-6645 6646 0
-994 -6645 0
-994 6646 0
-6646 6647 0
-995 -6646 0
-995 6647 0
-6647 6648 0
-996 -6647 0
-996 6648 0
-6648 6649 0
-997 -6648 0
-997 6649 0
-6649 6650 0
-998 -6649 0
-998 6650 0
-6650 6651 0
-999 -6650 0
-999 6651 0
-6651 6652 0
-1000 -6651 0
-1000 6652 0
-6652 6653 0
-1001 -6652 0
-1001 6653 0
-6653 6654 0
-1002 -6653 0
-1002 6654 0
-6654 6655 0
-1003 -6654 0
-1003 6655 0
-6655 6656 0
-1004 -6655 0
-1004 6656 0
-6656 6657 0
-1005 -6656 0
-1005 6657 0
-6657 6658 0
-1006 -6657 0
-1006 6658 0
-6658 6659 0
-1007 -6658 0
-1007 6659 0
-6659 6660 0
-1008 -6659 0
-1008 6660 0
-6660 6661 0
-1009 -6660 0
-1009 6661 0
-6661 6662 0
-1010 -6661 0
-1010 6662 0
-6662 6663 0
-1011 -6662 0
-1011 6663 0
-6663 6664 0
-1012 -6663 0
-1012 6664 0
-6664 6665 0
-1013 -6664 0
-1013 6665 0
-6665 6666 0
-1014 -6665 0
-1014 6666 0
-6666 6667 0
-1015 -6666 0
-1015 6667 0
-6667 6668 0
-1016 -6667 0
-1016 6668 0
-6668 6669 0
-1017 -6668 0
-1017 6669 0
-6669 6670 0
-1018 -6669 0
-1018 6670 0
-6670 6671 0
-1019 -6670 0
-1019 6671 0
-6671 6672 0
-1020 -6671 0
-1020 6672 0
-6672 6673 0
-1021 -6672 0
-1021 6673 0
-6673 6674 0
-1022 -6673 0
-1022 6674 0
-6674 6675 0
-1023 -6674 0
-1023 6675 0
-6675 6676 0
-1024 -6675 0
-1024 6676 0
-6676 6677 0
-1025 -6676 0
-1025 6677 0
-6677 6678 0
-1026 -6677 0
-1026 6678 0
-6678 6679 0
-1027 -6678 0
-1027 6679 0
-6679 6680 0
-1028 -6679 0
-1028 6680 0
-6680 6681 0
-1029 -6680 0
-1029 6681 0
-6681 6682 0
-1030 -6681 0
-1030 6682 0
-6682 6683 0
-1031 -6682 0
-1031 6683 0
-6683 6684 0
-1032 -6683 0
-1032 6684 0
-6684 6685 0
-1033 -6684 0
-1033 6685 0
-6685 6686 0
-1034 -6685 0
-1034 6686 0
-6686 6687 0
-1035 -6686 0
-1035 6687 0
-6687 6688 0
-1036 -6687 0
-1036 6688 0
-6688 6689 0
-1037 -6688 0
-1037 6689 0
-6689 6690 0
-1038 -6689 0
-1038 6690 0
-6690 6691 0
-1039 -6690 0
-1039 6691 0
-6691 6692 0
-1040 -6691 0
-1040 6692 0
-6692 6693 0
-1041 -6692 0
-1041 6693 0
-6693 6694 0
-1042 -6693 0
-1042 6694 0
-6694 6695 0
-1043 -6694 0
-1043 6695 0
-6695 6696 0
-1044 -6695 0
-1044 6696 0
-6696 6697 0
-1045 -6696 0
-1045 6697 0
-6697 6698 0
-1046 -6697 0
-1046 6698 0
-6698 6699 0
-1047 -6698 0
-1047 6699 0
-6699 6700 0
-1048 -6699 0
-1048 6700 0
-6700 6701 0
-1049 -6700 0
-1049 6701 0
-6701 6702 0
-1050 -6701 0
-1050 6702 0
-6702 6703 0
-1051 -6702 0
-1051 6703 0
-6703 6704 0
-1052 -6703 0
-1052 6704 0
-6704 6705 0
-1053 -6704 0
-1053 6705 0
-6705 6706 0
-1054 -6705 0
-1054 6706 0
-6706 6707 0
-1055 -6706 0
-1055 6707 0
-6707 6708 0
-1056 -6707 0
-1056 6708 0
-6708 6709 0
-1057 -6708 0
-1057 6709 0
-6709 6710 0
-1058 -6709 0
-1058 6710 0
-6710 6711 0
-1059 -6710 0
-1059 6711 0
-6711 6712 0
-1060 -6711 0
-1060 6712 0
-6712 6713 0
-1061 -6712 0
-1061 6713 0
-6713 6714 0
-1062 -6713 0
-1062 6714 0
-6714 6715 0
-1063 -6714 0
-1063 6715 0
-6715 6716 0
-1064 -6715 0
-1064 6716 0
-6716 6717 0
-1065 -6716 0
-1065 6717 0
-6717 6718 0
-1066 -6717 0
-1066 6718 0
-6718 6719 0
-1067 -6718 0
-1067 6719 0
-6719 6720 0
-1068 -6719 0
-1068 6720 0
-6720 6721 0
-1069 -6720 0
-1069 6721 0
-6721 6722 0
-1070 -6721 0
-1070 6722 0
-6722 6723 0
-1071 -6722 0
-1071 6723 0
-6723 6724 0
-1072 -6723 0
-1072 6724 0
-6724 6725 0
-1073 -6724 0
-1073 6725 0
-6725 6726 0
-1074 -6725 0
-1074 6726 0
-6726 6727 0
-1075 -6726 0
-1075 6727 0
-6727 6728 0
-1076 -6727 0
-1076 6728 0
-6728 6729 0
-1077 -6728 0
-1077 6729 0
-6729 6730 0
-1078 -6729 0
-1078 6730 0
-6730 6731 0
-1079 -6730 0
-1079 6731 0
-6731 6732 0
-1080 -6731 0
-1080 6732 0
-6732 6733 0
-1081 -6732 0
-1081 6733 0
-6733 6734 0
-1082 -6733 0
-1082 6734 0
-6734 6735 0
-1083 -6734 0
-1083 6735 0
-6735 6736 0
-1084 -6735 0
-1084 6736 0
-6736 6737 0
-1085 -6736 0
-1085 6737 0
-6737 6738 0
-1086 -6737 0
-1086 6738 0
-6738 6739 0
-1087 -6738 0
-1087 6739 0
-6739 6740 0
-1088 -6739 0
-1088 6740 0
-6740 6741 0
-1089 -6740 0
-1089 6741 0
-6741 6742 0
-1090 -6741 0
-1090 6742 0
-6742 6743 0
-1091 -6742 0
-1091 6743 0
-6743 6744 0
-1092 -6743 0
-1092 6744 0
-6744 6745 0
-1093 -6744 0
-1093 6745 0
-6745 6746 0
-1094 -6745 0
-1094 6746 0
-6746 6747 0
-1095 -6746 0
-1095 6747 0
-6747 6748 0
-1096 -6747 0
-1096 6748 0
-6748 6749 0
-1097 -6748 0
-1097 6749 0
-6749 6750 0
-1098 -6749 0
-1098 6750 0
-6750 6751 0
-1099 -6750 0
-1099 6751 0
-6751 6752 0
-1100 -6751 0
-1100 6752 0
-6752 6753 0
-1101 -6752 0
-1101 6753 0
-6753 6754 0
-1102 -6753 0
-1102 6754 0
-6754 6755 0
-1103 -6754 0
-1103 6755 0
-6755 6756 0
-1104 -6755 0
-1104 6756 0
-6756 6757 0
-1105 -6756 0
-1105 6757 0
-6757 6758 0
-1106 -6757 0
-1106 6758 0
-6758 6759 0
-1107 -6758 0
-1107 6759 0
-6759 6760 0
-1108 -6759 0
-1108 6760 0
-6760 6761 0
-1109 -6760 0
-1109 6761 0
-6761 6762 0
-1110 -6761 0
-1110 6762 0
-6762 6763 0
-1111 -6762 0
-1111 6763 0
-6763 6764 0
-1112 -6763 0
-1112 6764 0
-6764 6765 0
-1113 -6764 0
-1113 6765 0
-6765 6766 0
-1114 -6765 0
-1114 6766 0
-6766 6767 0
-1115 -6766 0
-1115 6767 0
-6767 6768 0
-1116 -6767 0
-1116 6768 0
-6768 6769 0
-1117 -6768 0
-1117 6769 0
-6769 6770 0
-1118 -6769 0
-1118 6770 0
-6770 6771 0
-1119 -6770 0
-1119 6771 0
-6771 6772 0
-1120 -6771 0
-1120 6772 0
-6772 6773 0
-1121 -6772 0
-1121 6773 0
-6773 6774 0
-1122 -6773 0
-1122 6774 0
-6774 6775 0
-1123 -6774 0
-1123 6775 0
-6775 6776 0
-1124 -6775 0
-1124 6776 0
-6776 6777 0
-1125 -6776 0
-1125 6777 0
-6777 6778 0
-1126 -6777 0
-1126 6778 0
-6778 6779 0
-1127 -6778 0
-1127 6779 0
-6779 6780 0
-1128 -6779 0
-1128 6780 0
-6780 6781 0
-1129 -6780 0
-1129 6781 0
-6781 6782 0
-1130 -6781 0
-1130 6782 0
-6782 6783 0
-1131 -6782 0
-1131 6783 0
-6783 6784 0
-1132 -6783 0
-1132 6784 0
-6784 6785 0
-1133 -6784 0
-1133 6785 0
-6785 6786 0
-1134 -6785 0
-1134 6786 0
-6786 6787 0
-1135 -6786 0
-1135 6787 0
-6787 6788 0
-1136 -6787 0
-1136 6788 0
-6788 6789 0
-1137 -6788 0
-1137 6789 0
-6789 6790 0
-1138 -6789 0
-1138 6790 0
-6790 6791 0
-1139 -6790 0
-1139 6791 0
-6791 6792 0
-1140 -6791 0
-1140 6792 0
-6792 6793 0
-1141 -6792 0
-1141 6793 0
-6793 6794 0
-1142 -6793 0
-1142 6794 0
-6794 6795 0
-1143 -6794 0
-1143 6795 0
-6795 6796 0
-1144 -6795 0
-1144 6796 0
-6796 6797 0
-1145 -6796 0
-1145 6797 0
-6797 6798 0
-1146 -6797 0
-1146 6798 0
-6798 6799 0
-1147 -6798 0
-1147 6799 0
-6799 6800 0
-1148 -6799 0
-1148 6800 0
-6800 6801 0
-1149 -6800 0
-1149 6801 0
-6801 6802 0
-1150 -6801 0
-1150 6802 0
-6802 6803 0
-1151 -6802 0
-1151 6803 0
-6803 6804 0
-1152 -6803 0
-1152 6804 0
-6804 6805 0
-1153 -6804 0
-1153 6805 0
-6805 6806 0
-1154 -6805 0
-1154 6806 0
-6806 6807 0
-1155 -6806 0
-1155 6807 0
-6807 6808 0
-1156 -6807 0
-1156 6808 0
-6808 6809 0
-1157 -6808 0
-1157 6809 0
-6809 6810 0
-1158 -6809 0
-1158 6810 0
-6810 6811 0
-1159 -6810 0
-1159 6811 0
-6811 6812 0
-1160 -6811 0
-1160 6812 0
-6812 6813 0
-1161 -6812 0
-1161 6813 0
-6813 6814 0
-1162 -6813 0
-1162 6814 0
-6814 6815 0
-1163 -6814 0
-1163 6815 0
-6815 6816 0
-1164 -6815 0
-1164 6816 0
-6816 6817 0
-1165 -6816 0
-1165 6817 0
-6817 6818 0
-1166 -6817 0
-1166 6818 0
-6818 6819 0
-1167 -6818 0
-1167 6819 0
-6819 6820 0
-1168 -6819 0
-1168 6820 0
-6820 6821 0
-1169 -6820 0
-1169 6821 0
-6821 6822 0
-1170 -6821 0
-1170 6822 0
-6822 6823 0
-1171 -6822 0
-1171 6823 0
-6823 6824 0
-1172 -6823 0
-1172 6824 0
-6824 6825 0
-1173 -6824 0
-1173 6825 0
-6825 6826 0
-1174 -6825 0
-1174 6826 0
-6826 6827 0
-1175 -6826 0
-1175 6827 0
-6827 6828 0
-1176 -6827 0
-1176 6828 0
-6828 6829 0
-1177 -6828 0
-1177 6829 0
-6829 6830 0
-1178 -6829 0
-1178 6830 0
-6830 6831 0
-1179 -6830 0
-1179 6831 0
-6831 6832 0
-1180 -6831 0
-1180 6832 0
-6832 6833 0
-1181 -6832 0
-1181 6833 0
-6833 6834 0
-1182 -6833 0
-1182 6834 0
-6834 6835 0
-1183 -6834 0
-1183 6835 0
-6835 6836 0
-1184 -6835 0
-1184 6836 0
-6836 6837 0
-1185 -6836 0
-1185 6837 0
-6837 6838 0
-1186 -6837 0
-1186 6838 0
-6838 6839 0
-1187 -6838 0
-1187 6839 0
-6839 6840 0
-1188 -6839 0
-1188 6840 0
-6840 6841 0
-1189 -6840 0
-1189 6841 0
-6841 6842 0
-1190 -6841 0
-1190 6842 0
-6842 6843 0
-1191 -6842 0
-1191 6843 0
-6843 6844 0
-1192 -6843 0
-1192 6844 0
-6844 6845 0
-1193 -6844 0
-1193 6845 0
-6845 6846 0
-1194 -6845 0
-1194 6846 0
-6846 6847 0
-1195 -6846 0
-1195 6847 0
-6847 6848 0
-1196 -6847 0
-1196 6848 0
-6848 6849 0
-1197 -6848 0
-1197 6849 0
-6849 6850 0
-1198 -6849 0
-1198 6850 0
-6850 6851 0
-1199 -6850 0
-1199 6851 0
-6851 6852 0
-1200 -6851 0
-1200 6852 0
-6852 6853 0
-1201 -6852 0
-1201 6853 0
-6853 6854 0
-1202 -6853 0
-1202 6854 0
-6854 6855 0
-1203 -6854 0
-1203 6855 0
-6855 6856 0
-1204 -6855 0
-1204 6856 0
-6856 6857 0
-1205 -6856 0
-1205 6857 0
-6857 6858 0
-1206 -6857 0
-1206 6858 0
-6858 6859 0
-1207 -6858 0
-1207 6859 0
-6859 6860 0
-1208 -6859 0
-1208 6860 0
-6860 6861 0
-1209 -6860 0
-1209 6861 0
-6861 6862 0
-1210 -6861 0
-1210 6862 0
-6862 6863 0
-1211 -6862 0
-1211 6863 0
-6863 6864 0
-1212 -6863 0
-1212 6864 0
-6864 6865 0
-1213 -6864 0
-1213 6865 0
-6865 6866 0
-1214 -6865 0
-1214 6866 0
-6866 6867 0
-1215 -6866 0
-1215 6867 0
-6867 6868 0
-1216 -6867 0
-1216 6868 0
-6868 6869 0
-1217 -6868 0
-1217 6869 0
-6869 6870 0
-1218 -6869 0
-1218 6870 0
-6870 6871 0
-1219 -6870 0
-1219 6871 0
-6871 6872 0
-1220 -6871 0
-1220 6872 0
-6872 6873 0
-1221 -6872 0
-1221 6873 0
-6873 6874 0
-1222 -6873 0
-1222 6874 0
-6874 6875 0
-1223 -6874 0
-1223 6875 0
-6875 6876 0
-1224 -6875 0
-1224 6876 0
-6876 6877 0
-1225 -6876 0
-1225 6877 0
-6877 6878 0
-1226 -6877 0
-1226 6878 0
-6878 6879 0
-1227 -6878 0
-1227 6879 0
-6879 6880 0
-1228 -6879 0
-1228 6880 0
-6880 6881 0
-1229 -6880 0
-1229 6881 0
-6881 6882 0
-1230 -6881 0
-1230 6882 0
-6882 6883 0
-1231 -6882 0
-1231 6883 0
-6883 6884 0
-1232 -6883 0
-1232 6884 0
-6884 6885 0
-1233 -6884 0
-1233 6885 0
-6885 6886 0
-1234 -6885 0
-1234 6886 0
-6886 6887 0
-1235 -6886 0
-1235 6887 0
-6887 6888 0
-1236 -6887 0
-1236 6888 0
-6888 6889 0
-1237 -6888 0
-1237 6889 0
-6889 6890 0
-1238 -6889 0
-1238 6890 0
-6890 6891 0
-1239 -6890 0
-1239 6891 0
-1240 -6891 0
-1241 6892 0
-6892 6893 0
-1242 -6892 0
-1242 6893 0
-6893 6894 0
-1243 -6893 0
-1243 6894 0
-6894 6895 0
-1244 -6894 0
-1244 6895 0
-6895 6896 0
-1245 -6895 0
-1245 6896 0
-6896 6897 0
-1246 -6896 0
-1246 6897 0
-6897 6898 0
-1247 -6897 0
-1247 6898 0
-6898 6899 0
-1248 -6898 0
-1248 6899 0
-6899 6900 0
-1249 -6899 0
-1249 6900 0
-6900 6901 0
-1250 -6900 0
-1250 6901 0
-6901 6902 0
-1251 -6901 0
-1251 6902 0
-6902 6903 0
-1252 -6902 0
-1252 6903 0
-6903 6904 0
-1253 -6903 0
-1253 6904 0
-6904 6905 0
-1254 -6904 0
-1254 6905 0
-6905 6906 0
-1255 -6905 0
-1255 6906 0
-6906 6907 0
-1256 -6906 0
-1256 6907 0
-6907 6908 0
-1257 -6907 0
-1257 6908 0
-6908 6909 0
-1258 -6908 0
-1258 6909 0
-6909 6910 0
-1259 -6909 0
-1259 6910 0
-6910 6911 0
-1260 -6910 0
-1260 6911 0
-6911 6912 0
-1261 -6911 0
-1261 6912 0
-6912 6913 0
-1262 -6912 0
-1262 6913 0
-6913 6914 0
-1263 -6913 0
-1263 6914 0
-6914 6915 0
-1264 -6914 0
-1264 6915 0
-6915 6916 0
-1265 -6915 0
-1265 6916 0
-6916 6917 0
-1266 -6916 0
-1266 6917 0
-6917 6918 0
-1267 -6917 0
-1267 6918 0
-6918 6919 0
-1268 -6918 0
-1268 6919 0
-6919 6920 0
-1269 -6919 0
-1269 6920 0
-6920 6921 0
-1270 -6920 0
-1270 6921 0
-6921 6922 0
-1271 -6921 0
-1271 6922 0
-6922 6923 0
-1272 -6922 0
-1272 6923 0
-6923 6924 0
-1273 -6923 0
-1273 6924 0
-6924 6925 0
-1274 -6924 0
-1274 6925 0
-6925 6926 0
-1275 -6925 0
-1275 6926 0
-6926 6927 0
-1276 -6926 0
-1276 6927 0
-6927 6928 0
-1277 -6927 0
-1277 6928 0
-6928 6929 0
-1278 -6928 0
-1278 6929 0
-6929 6930 0
-1279 -6929 0
-1279 6930 0
-6930 6931 0
-1280 -6930 0
-1280 6931 0
-6931 6932 0
-1281 -6931 0
-1281 6932 0
-6932 6933 0
-1282 -6932 0
-1282 6933 0
-6933 6934 0
-1283 -6933 0
-1283 6934 0
-6934 6935 0
-1284 -6934 0
-1284 6935 0
-6935 6936 0
-1285 -6935 0
-1285 6936 0
-6936 6937 0
-1286 -6936 0
-1286 6937 0
-6937 6938 0
-1287 -6937 0
-1287 6938 0
-6938 6939 0
-1288 -6938 0
-1288 6939 0
-6939 6940 0
-1289 -6939 0
-1289 6940 0
-6940 6941 0
-1290 -6940 0
-1290 6941 0
-6941 6942 0
-1291 -6941 0
-1291 6942 0
-6942 6943 0
-1292 -6942 0
-1292 6943 0
-6943 6944 0
-1293 -6943 0
-1293 6944 0
-6944 6945 0
-1294 -6944 0
-1294 6945 0
-6945 6946 0
-1295 -6945 0
-1295 6946 0
-6946 6947 0
-1296 -6946 0
-1296 6947 0
-6947 6948 0
-1297 -6947 0
-1297 6948 0
-6948 6949 0
-1298 -6948 0
-1298 6949 0
-6949 6950 0
-1299 -6949 0
-1299 6950 0
-6950 6951 0
-1300 -6950 0
-1300 6951 0
-6951 6952 0
-1301 -6951 0
-1301 6952 0
-6952 6953 0
-1302 -6952 0
-1302 6953 0
-6953 6954 0
-1303 -6953 0
-1303 6954 0
-6954 6955 0
-1304 -6954 0
-1304 6955 0
-6955 6956 0
-1305 -6955 0
-1305 6956 0
-6956 6957 0
-1306 -6956 0
-1306 6957 0
-6957 6958 0
-1307 -6957 0
-1307 6958 0
-6958 6959 0
-1308 -6958 0
-1308 6959 0
-6959 6960 0
-1309 -6959 0
-1309 6960 0
-6960 6961 0
-1310 -6960 0
-1310 6961 0
-6961 6962 0
-1311 -6961 0
-1311 6962 0
-6962 6963 0
-1312 -6962 0
-1312 6963 0
-6963 6964 0
-1313 -6963 0
-1313 6964 0
-6964 6965 0
-1314 -6964 0
-1314 6965 0
-6965 6966 0
-1315 -6965 0
-1315 6966 0
-6966 6967 0
-1316 -6966 0
-1316 6967 0
-6967 6968 0
-1317 -6967 0
-1317 6968 0
-6968 6969 0
-1318 -6968 0
-1318 6969 0
-6969 6970 0
-1319 -6969 0
-1319 6970 0
-6970 6971 0
-1320 -6970 0
-1320 6971 0
-6971 6972 0
-1321 -6971 0
-1321 6972 0
-6972 6973 0
-1322 -6972 0
-1322 6973 0
-6973 6974 0
-1323 -6973 0
-1323 6974 0
-6974 6975 0
-1324 -6974 0
-1324 6975 0
-6975 6976 0
-1325 -6975 0
-1325 6976 0
-6976 6977 0
-1326 -6976 0
-1326 6977 0
-6977 6978 0
-1327 -6977 0
-1327 6978 0
-6978 6979 0
-1328 -6978 0
-1328 6979 0
-6979 6980 0
-1329 -6979 0
-1329 6980 0
-6980 6981 0
-1330 -6980 0
-1330 6981 0
-6981 6982 0
-1331 -6981 0
-1331 6982 0
-6982 6983 0
-1332 -6982 0
-1332 6983 0
-6983 6984 0
-1333 -6983 0
-1333 6984 0
-6984 6985 0
-1334 -6984 0
-1334 6985 0
-6985 6986 0
-1335 -6985 0
-1335 6986 0
-6986 6987 0
-1336 -6986 0
-1336 6987 0
-6987 6988 0
-1337 -6987 0
-1337 6988 0
-6988 6989 0
-1338 -6988 0
-1338 6989 0
-6989 6990 0
-1339 -6989 0
-1339 6990 0
-6990 6991 0
-1340 -6990 0
-1340 6991 0
-6991 6992 0
-1341 -6991 0
-1341 6992 0
-6992 6993 0
-1342 -6992 0
-1342 6993 0
-6993 6994 0
-1343 -6993 0
-1343 6994 0
-6994 6995 0
-1344 -6994 0
-1344 6995 0
-6995 6996 0
-1345 -6995 0
-1345 6996 0
-6996 6997 0
-1346 -6996 0
-1346 6997 0
-6997 6998 0
-1347 -6997 0
-1347 6998 0
-6998 6999 0
-1348 -6998 0
-1348 6999 0
-6999 7000 0
-1349 -6999 0
-1349 7000 0
-7000 7001 0
-1350 -7000 0
-1350 7001 0
-7001 7002 0
-1351 -7001 0
-1351 7002 0
-7002 7003 0
-1352 -7002 0
-1352 7003 0
-7003 7004 0
-1353 -7003 0
-1353 7004 0
-7004 7005 0
-1354 -7004 0
-1354 7005 0
-7005 7006 0
-1355 -7005 0
-1355 7006 0
-7006 7007 0
-1356 -7006 0
-1356 7007 0
-7007 7008 0
-1357 -7007 0
-1357 7008 0
-7008 7009 0
-1358 -7008 0
-1358 7009 0
-7009 7010 0
-1359 -7009 0
-1359 7010 0
-7010 7011 0
-1360 -7010 0
-1360 7011 0
-7011 7012 0
-1361 -7011 0
-1361 7012 0
-7012 7013 0
-1362 -7012 0
-1362 7013 0
-7013 7014 0
-1363 -7013 0
-1363 7014 0
-7014 7015 0
-1364 -7014 0
-1364 7015 0
-7015 7016 0
-1365 -7015 0
-1365 7016 0
-7016 7017 0
-1366 -7016 0
-1366 7017 0
-7017 7018 0
-1367 -7017 0
-1367 7018 0
-7018 7019 0
-1368 -7018 0
-1368 7019 0
-7019 7020 0
-1369 -7019 0
-1369 7020 0
-7020 7021 0
-1370 -7020 0
-1370 7021 0
-7021 7022 0
-1371 -7021 0
-1371 7022 0
-7022 7023 0
-1372 -7022 0
-1372 7023 0
-7023 7024 0
-1373 -7023 0
-1373 7024 0
-7024 7025 0
-1374 -7024 0
-1374 7025 0
-7025 7026 0
-1375 -7025 0
-1375 7026 0
-7026 7027 0
-1376 -7026 0
-1376 7027 0
-7027 7028 0
-1377 -7027 0
-1377 7028 0
-7028 7029 0
-1378 -7028 0
-1378 7029 0
-7029 7030 0
-1379 -7029 0
-1379 7030 0
-7030 7031 0
-1380 -7030 0
-1380 7031 0
-7031 7032 0
-1381 -7031 0
-1381 7032 0
-7032 7033 0
-1382 -7032 0
-1382 7033 0
-7033 7034 0
-1383 -7033 0
-1383 7034 0
-7034 7035 0
-1384 -7034 0
-1384 7035 0
-7035 7036 0
-1385 -7035 0
-1385 7036 0
-7036 7037 0
-1386 -7036 0
-1386 7037 0
-7037 7038 0
-1387 -7037 0
-1387 7038 0
-7038 7039 0
-1388 -7038 0
-1388 7039 0
-7039 7040 0
-1389 -7039 0
-1389 7040 0
-7040 7041 0
-1390 -7040 0
-1390 7041 0
-7041 7042 0
-1391 -7041 0
-1391 7042 0
-7042 7043 0
-1392 -7042 0
-1392 7043 0
-7043 7044 0
-1393 -7043 0
-1393 7044 0
-7044 7045 0
-1394 -7044 0
-1394 7045 0
-7045 7046 0
-1395 -7045 0
-1395 7046 0
-7046 7047 0
-1396 -7046 0
-1396 7047 0
-7047 7048 0
-1397 -7047 0
-1397 7048 0
-7048 7049 0
-1398 -7048 0
-1398 7049 0
-7049 7050 0
-1399 -7049 0
-1399 7050 0
-7050 7051 0
-1400 -7050 0
-1400 7051 0
-7051 7052 0
-1401 -7051 0
-1401 7052 0
-7052 7053 0
-1402 -7052 0
-1402 7053 0
-7053 7054 0
-1403 -7053 0
-1403 7054 0
-7054 7055 0
-1404 -7054 0
-1404 7055 0
-7055 7056 0
-1405 -7055 0
-1405 7056 0
-7056 7057 0
-1406 -7056 0
-1406 7057 0
-7057 7058 0
-1407 -7057 0
-1407 7058 0
-7058 7059 0
-1408 -7058 0
-1408 7059 0
-7059 7060 0
-1409 -7059 0
-1409 7060 0
-7060 7061 0
-1410 -7060 0
-1410 7061 0
-7061 7062 0
-1411 -7061 0
-1411 7062 0
-7062 7063 0
-1412 -7062 0
-1412 7063 0
-7063 7064 0
-1413 -7063 0
-1413 7064 0
-7064 7065 0
-1414 -7064 0
-1414 7065 0
-7065 7066 0
-1415 -7065 0
-1415 7066 0
-7066 7067 0
-1416 -7066 0
-1416 7067 0
-7067 7068 0
-1417 -7067 0
-1417 7068 0
-7068 7069 0
-1418 -7068 0
-1418 7069 0
-7069 7070 0
-1419 -7069 0
-1419 7070 0
-7070 7071 0
-1420 -7070 0
-1420 7071 0
-7071 7072 0
-1421 -7071 0
-1421 7072 0
-7072 7073 0
-1422 -7072 0
-1422 7073 0
-7073 7074 0
-1423 -7073 0
-1423 7074 0
-7074 7075 0
-1424 -7074 0
-1424 7075 0
-7075 7076 0
-1425 -7075 0
-1425 7076 0
-7076 7077 0
-1426 -7076 0
-1426 7077 0
-7077 7078 0
-1427 -7077 0
-1427 7078 0
-7078 7079 0
-1428 -7078 0
-1428 7079 0
-7079 7080 0
-1429 -7079 0
-1429 7080 0
-7080 7081 0
-1430 -7080 0
-1430 7081 0
-7081 7082 0
-1431 -7081 0
-1431 7082 0
-7082 7083 0
-1432 -7082 0
-1432 7083 0
-7083 7084 0
-1433 -7083 0
-1433 7084 0
-7084 7085 0
-1434 -7084 0
-1434 7085 0
-7085 7086 0
-1435 -7085 0
-1435 7086 0
-7086 7087 0
-1436 -7086 0
-1436 7087 0
-7087 7088 0
-1437 -7087 0
-1437 7088 0
-7088 7089 0
-1438 -7088 0
-1438 7089 0
-7089 7090 0
-1439 -7089 0
-1439 7090 0
-7090 7091 0
-1440 -7090 0
-1440 7091 0
-7091 7092 0
-1441 -7091 0
-1441 7092 0
-7092 7093 0
-1442 -7092 0
-1442 7093 0
-7093 7094 0
-1443 -7093 0
-1443 7094 0
-7094 7095 0
-1444 -7094 0
-1444 7095 0
-7095 7096 0
-1445 -7095 0
-1445 7096 0
-7096 7097 0
-1446 -7096 0
-1446 7097 0
-7097 7098 0
-1447 -7097 0
-1447 7098 0
-7098 7099 0
-1448 -7098 0
-1448 7099 0
-7099 7100 0
-1449 -7099 0
-1449 7100 0
-7100 7101 0
-1450 -7100 0
-1450 7101 0
-7101 7102 0
-1451 -7101 0
-1451 7102 0
-7102 7103 0
-1452 -7102 0
-1452 7103 0
-7103 7104 0
-1453 -7103 0
-1453 7104 0
-7104 7105 0
-1454 -7104 0
-1454 7105 0
-7105 7106 0
-1455 -7105 0
-1455 7106 0
-7106 7107 0
-1456 -7106 0
-1456 7107 0
-7107 7108 0
-1457 -7107 0
-1457 7108 0
-7108 7109 0
-1458 -7108 0
-1458 7109 0
-7109 7110 0
-1459 -7109 0
-1459 7110 0
-7110 7111 0
-1460 -7110 0
-1460 7111 0
-7111 7112 0
-1461 -7111 0
-1461 7112 0
-7112 7113 0
-1462 -7112 0
-1462 7113 0
-7113 7114 0
-1463 -7113 0
-1463 7114 0
-7114 7115 0
-1464 -7114 0
-1464 7115 0
-7115 7116 0
-1465 -7115 0
-1465 7116 0
-7116 7117 0
-1466 -7116 0
-1466 7117 0
-7117 7118 0
-1467 -7117 0
-1467 7118 0
-7118 7119 0
-1468 -7118 0
-1468 7119 0
-7119 7120 0
-1469 -7119 0
-1469 7120 0
-7120 7121 0
-1470 -7120 0
-1470 7121 0
-7121 7122 0
-1471 -7121 0
-1471 7122 0
-7122 7123 0
-1472 -7122 0
-1472 7123 0
-7123 7124 0
-1473 -7123 0
-1473 7124 0
-7124 7125 0
-1474 -7124 0
-1474 7125 0
-7125 7126 0
-1475 -7125 0
-1475 7126 0
-7126 7127 0
-1476 -7126 0
-1476 7127 0
-7127 7128 0
-1477 -7127 0
-1477 7128 0
-7128 7129 0
-1478 -7128 0
-1478 7129 0
-7129 7130 0
-1479 -7129 0
-1479 7130 0
-7130 7131 0
-1480 -7130 0
-1480 7131 0
-7131 7132 0
-1481 -7131 0
-1481 7132 0
-7132 7133 0
-1482 -7132 0
-1482 7133 0
-7133 7134 0
-1483 -7133 0
-1483 7134 0
-7134 7135 0
-1484 -7134 0
-1484 7135 0
-7135 7136 0
-1485 -7135 0
-1485 7136 0
-7136 7137 0
-1486 -7136 0
-1486 7137 0
-7137 7138 0
-1487 -7137 0
-1487 7138 0
-7138 7139 0
-1488 -7138 0
-1488 7139 0
-7139 7140 0
-1489 -7139 0
-1489 7140 0
-7140 7141 0
-1490 -7140 0
-1490 7141 0
-7141 7142 0
-1491 -7141 0
-1491 7142 0
-7142 7143 0
-1492 -7142 0
-1492 7143 0
-7143 7144 0
-1493 -7143 0
-1493 7144 0
-7144 7145 0
-1494 -7144 0
-1494 7145 0
-7145 7146 0
-1495 -7145 0
-1495 7146 0
-7146 7147 0
-1496 -7146 0
-1496 7147 0
-7147 7148 0
-1497 -7147 0
-1497 7148 0
-7148 7149 0
-1498 -7148 0
-1498 7149 0
-7149 7150 0
-1499 -7149 0
-1499 7150 0
-7150 7151 0
-1500 -7150 0
-1500 7151 0
-7151 7152 0
-1501 -7151 0
-1501 7152 0
-7152 7153 0
-1502 -7152 0
-1502 7153 0
-7153 7154 0
-1503 -7153 0
-1503 7154 0
-7154 7155 0
-1504 -7154 0
-1504 7155 0
-7155 7156 0
-1505 -7155 0
-1505 7156 0
-7156 7157 0
-1506 -7156 0
-1506 7157 0
-7157 7158 0
-1507 -7157 0
-1507 7158 0
-7158 7159 0
-1508 -7158 0
-1508 7159 0
-7159 7160 0
-1509 -7159 0
-1509 7160 0
-7160 7161 0
-1510 -7160 0
-1510 7161 0
-7161 7162 0
-1511 -7161 0
-1511 7162 0
-7162 7163 0
-1512 -7162 0
-1512 7163 0
-7163 7164 0
-1513 -7163 0
-1513 7164 0
-7164 7165 0
-1514 -7164 0
-1514 7165 0
-7165 7166 0
-1515 -7165 0
-1515 7166 0
-7166 7167 0
-1516 -7166 0
-1516 7167 0
-7167 7168 0
-1517 -7167 0
-1517 7168 0
-7168 7169 0
-1518 -7168 0
-1518 7169 0
-7169 7170 0
-1519 -7169 0
-1519 7170 0
-7170 7171 0
-1520 -7170 0
-1520 7171 0
-7171 7172 0
-1521 -7171 0
-1521 7172 0
-7172 7173 0
-1522 -7172 0
-1522 7173 0
-7173 7174 0
-1523 -7173 0
-1523 7174 0
-7174 7175 0
-1524 -7174 0
-1524 7175 0
-7175 7176 0
-1525 -7175 0
-1525 7176 0
-7176 7177 0
-1526 -7176 0
-1526 7177 0
-7177 7178 0
-1527 -7177 0
-1527 7178 0
-7178 7179 0
-1528 -7178 0
-1528 7179 0
-7179 7180 0
-1529 -7179 0
-1529 7180 0
-7180 7181 0
-1530 -7180 0
-1530 7181 0
-7181 7182 0
-1531 -7181 0
-1531 7182 0
-7182 7183 0
-1532 -7182 0
-1532 7183 0
-7183 7184 0
-1533 -7183 0
-1533 7184 0
-7184 7185 0
-1534 -7184 0
-1534 7185 0
-7185 7186 0
-1535 -7185 0
-1535 7186 0
-7186 7187 0
-1536 -7186 0
-1536 7187 0
-7187 7188 0
-1537 -7187 0
-1537 7188 0
-7188 7189 0
-1538 -7188 0
-1538 7189 0
-7189 7190 0
-1539 -7189 0
-1539 7190 0
-7190 7191 0
-1540 -7190 0
-1540 7191 0
-7191 7192 0
-1541 -7191 0
-1541 7192 0
-7192 7193 0
-1542 -7192 0
-1542 7193 0
-7193 7194 0
-1543 -7193 0
-1543 7194 0
-7194 7195 0
-1544 -7194 0
-1544 7195 0
-7195 7196 0
-1545 -7195 0
-1545 7196 0
-7196 7197 0
-1546 -7196 0
-1546 7197 0
-7197 7198 0
-1547 -7197 0
-1547 7198 0
-7198 7199 0
-1548 -7198 0
-1548 7199 0
-7199 7200 0
-1549 -7199 0
-1549 7200 0
-7200 7201 0
-1550 -7200 0
-1550 7201 0
-7201 7202 0
-1551 -7201 0
-1551 7202 0
-7202 7203 0
-1552 -7202 0
-1552 7203 0
-7203 7204 0
-1553 -7203 0
-1553 7204 0
-7204 7205 0
-1554 -7204 0
-1554 7205 0
-7205 7206 0
-1555 -7205 0
-1555 7206 0
-7206 7207 0
-1556 -7206 0
-1556 7207 0
-7207 7208 0
-1557 -7207 0
-1557 7208 0
-7208 7209 0
-1558 -7208 0
-1558 7209 0
-7209 7210 0
-1559 -7209 0
-1559 7210 0
-7210 7211 0
-1560 -7210 0
-1560 7211 0
-7211 7212 0
-1561 -7211 0
-1561 7212 0
-7212 7213 0
-1562 -7212 0
-1562 7213 0
-7213 7214 0
-1563 -7213 0
-1563 7214 0
-7214 7215 0
-1564 -7214 0
-1564 7215 0
-7215 7216 0
-1565 -7215 0
-1565 7216 0
-7216 7217 0
-1566 -7216 0
-1566 7217 0
-7217 7218 0
-1567 -7217 0
-1567 7218 0
-7218 7219 0
-1568 -7218 0
-1568 7219 0
-7219 7220 0
-1569 -7219 0
-1569 7220 0
-7220 7221 0
-1570 -7220 0
-1570 7221 0
-7221 7222 0
-1571 -7221 0
-1571 7222 0
-7222 7223 0
-1572 -7222 0
-1572 7223 0
-7223 7224 0
-1573 -7223 0
-1573 7224 0
-7224 7225 0
-1574 -7224 0
-1574 7225 0
-7225 7226 0
-1575 -7225 0
-1575 7226 0
-7226 7227 0
-1576 -7226 0
-1576 7227 0
-7227 7228 0
-1577 -7227 0
-1577 7228 0
-7228 7229 0
-1578 -7228 0
-1578 7229 0
-7229 7230 0
-1579 -7229 0
-1579 7230 0
-7230 7231 0
-1580 -7230 0
-1580 7231 0
-7231 7232 0
-1581 -7231 0
-1581 7232 0
-7232 7233 0
-1582 -7232 0
-1582 7233 0
-7233 7234 0
-1583 -7233 0
-1583 7234 0
-7234 7235 0
-1584 -7234 0
-1584 7235 0
-7235 7236 0
-1585 -7235 0
-1585 7236 0
-7236 7237 0
-1586 -7236 0
-1586 7237 0
-7237 7238 0
-1587 -7237 0
-1587 7238 0
-7238 7239 0
-1588 -7238 0
-1588 7239 0
-7239 7240 0
-1589 -7239 0
-1589 7240 0
-7240 7241 0
-1590 -7240 0
-1590 7241 0
-7241 7242 0
-1591 -7241 0
-1591 7242 0
-7242 7243 0
-1592 -7242 0
-1592 7243 0
-7243 7244 0
-1593 -7243 0
-1593 7244 0
-7244 7245 0
-1594 -7244 0
-1594 7245 0
-7245 7246 0
-1595 -7245 0
-1595 7246 0
-7246 7247 0
-1596 -7246 0
-1596 7247 0
-7247 7248 0
-1597 -7247 0
-1597 7248 0
-7248 7249 0
-1598 -7248 0
-1598 7249 0
-7249 7250 0
-1599 -7249 0
-1599 7250 0
-7250 7251 0
-1600 -7250 0
-1600 7251 0
-7251 7252 0
-1601 -7251 0
-1601 7252 0
-7252 7253 0
-1602 -7252 0
-1602 7253 0
-7253 7254 0
-1603 -7253 0
-1603 7254 0
-7254 7255 0
-1604 -7254 0
-1604 7255 0
-7255 7256 0
-1605 -7255 0
-1605 7256 0
-7256 7257 0
-1606 -7256 0
-1606 7257 0
-7257 7258 0
-1607 -7257 0
-1607 7258 0
-7258 7259 0
-1608 -7258 0
-1608 7259 0
-7259 7260 0
-1609 -7259 0
-1609 7260 0
-7260 7261 0
-1610 -7260 0
-1610 7261 0
-7261 7262 0
-1611 -7261 0
-1611 7262 0
-7262 7263 0
-1612 -7262 0
-1612 7263 0
-7263 7264 0
-1613 -7263 0
-1613 7264 0
-7264 7265 0
-1614 -7264 0
-1614 7265 0
-7265 7266 0
-1615 -7265 0
-1615 7266 0
-7266 7267 0
-1616 -7266 0
-1616 7267 0
-7267 7268 0
-1617 -7267 0
-1617 7268 0
-7268 7269 0
-1618 -7268 0
-1618 7269 0
-7269 7270 0
-1619 -7269 0
-1619 7270 0
-7270 7271 0
-1620 -7270 0
-1620 7271 0
-7271 7272 0
-1621 -7271 0
-1621 7272 0
-7272 7273 0
-1622 -7272 0
-1622 7273 0
-7273 7274 0
-1623 -7273 0
-1623 7274 0
-7274 7275 0
-1624 -7274 0
-1624 7275 0
-7275 7276 0
-1625 -7275 0
-1625 7276 0
-7276 7277 0
-1626 -7276 0
-1626 7277 0
-7277 7278 0
-1627 -7277 0
-1627 7278 0
-7278 7279 0
-1628 -7278 0
-1628 7279 0
-7279 7280 0
-1629 -7279 0
-1629 7280 0
-7280 7281 0
-1630 -7280 0
-1630 7281 0
-7281 7282 0
-1631 -7281 0
-1631 7282 0
-7282 7283 0
-1632 -7282 0
-1632 7283 0
-7283 7284 0
-1633 -7283 0
-1633 7284 0
-7284 7285 0
-1634 -7284 0
-1634 7285 0
-7285 7286 0
-1635 -7285 0
-1635 7286 0
-7286 7287 0
-1636 -7286 0
-1636 7287 0
-7287 7288 0
-1637 -7287 0
-1637 7288 0
-7288 7289 0
-1638 -7288 0
-1638 7289 0
-7289 7290 0
-1639 -7289 0
-1639 7290 0
-7290 7291 0
-1640 -7290 0
-1640 7291 0
-7291 7292 0
-1641 -7291 0
-1641 7292 0
-7292 7293 0
-1642 -7292 0
-1642 7293 0
-7293 7294 0
-1643 -7293 0
-1643 7294 0
-7294 7295 0
-1644 -7294 0
-1644 7295 0
-7295 7296 0
-1645 -7295 0
-1645 7296 0
-7296 7297 0
-1646 -7296 0
-1646 7297 0
-7297 7298 0
-1647 -7297 0
-1647 7298 0
-7298 7299 0
-1648 -7298 0
-1648 7299 0
-7299 7300 0
-1649 -7299 0
-1649 7300 0
-7300 7301 0
-1650 -7300 0
-1650 7301 0
-7301 7302 0
-1651 -7301 0
-1651 7302 0
-7302 7303 0
-1652 -7302 0
-1652 7303 0
-7303 7304 0
-1653 -7303 0
-1653 7304 0
-7304 7305 0
-1654 -7304 0
-1654 7305 0
-7305 7306 0
-1655 -7305 0
-1655 7306 0
-7306 7307 0
-1656 -7306 0
-1656 7307 0
-7307 7308 0
-1657 -7307 0
-1657 7308 0
-7308 7309 0
-1658 -7308 0
-1658 7309 0
-7309 7310 0
-1659 -7309 0
-1659 7310 0
-7310 7311 0
-1660 -7310 0
-1660 7311 0
-7311 7312 0
-1661 -7311 0
-1661 7312 0
-7312 7313 0
-1662 -7312 0
-1662 7313 0
-7313 7314 0
-1663 -7313 0
-1663 7314 0
-7314 7315 0
-1664 -7314 0
-1664 7315 0
-7315 7316 0
-1665 -7315 0
-1665 7316 0
-7316 7317 0
-1666 -7316 0
-1666 7317 0
-7317 7318 0
-1667 -7317 0
-1667 7318 0
-7318 7319 0
-1668 -7318 0
-1668 7319 0
-7319 7320 0
-1669 -7319 0
-1669 7320 0
-7320 7321 0
-1670 -7320 0
-1670 7321 0
-7321 7322 0
-1671 -7321 0
-1671 7322 0
-7322 7323 0
-1672 -7322 0
-1672 7323 0
-7323 7324 0
-1673 -7323 0
-1673 7324 0
-7324 7325 0
-1674 -7324 0
-1674 7325 0
-7325 7326 0
-1675 -7325 0
-1675 7326 0
-7326 7327 0
-1676 -7326 0
-1676 7327 0
-7327 7328 0
-1677 -7327 0
-1677 7328 0
-7328 7329 0
-1678 -7328 0
-1678 7329 0
-7329 7330 0
-1679 -7329 0
-1679 7330 0
-1680 -7330 0
-1681 7331 0
-7331 7332 0
-1682 -7331 0
-1682 7332 0
-7332 7333 0
-1683 -7332 0
-1683 7333 0
-7333 7334 0
-1684 -7333 0
-1684 7334 0
-7334 7335 0
-1685 -7334 0
-1685 7335 0
-7335 7336 0
-1686 -7335 0
-1686 7336 0
-7336 7337 0
-1687 -7336 0
-1687 7337 0
-7337 7338 0
-1688 -7337 0
-1688 7338 0
-7338 7339 0
-1689 -7338 0
-1689 7339 0
-7339 7340 0
-1690 -7339 0
-1690 7340 0
-7340 7341 0
-1691 -7340 0
-1691 7341 0
-7341 7342 0
-1692 -7341 0
-1692 7342 0
-7342 7343 0
-1693 -7342 0
-1693 7343 0
-7343 7344 0
-1694 -7343 0
-1694 7344 0
-7344 7345 0
-1695 -7344 0
-1695 7345 0
-7345 7346 0
-1696 -7345 0
-1696 7346 0
-7346 7347 0
-1697 -7346 0
-1697 7347 0
-7347 7348 0
-1698 -7347 0
-1698 7348 0
-7348 7349 0
-1699 -7348 0
-1699 7349 0
-7349 7350 0
-1700 -7349 0
-1700 7350 0
-7350 7351 0
-1701 -7350 0
-1701 7351 0
-7351 7352 0
-1702 -7351 0
-1702 7352 0
-7352 7353 0
-1703 -7352 0
-1703 7353 0
-7353 7354 0
-1704 -7353 0
-1704 7354 0
-7354 7355 0
-1705 -7354 0
-1705 7355 0
-7355 7356 0
-1706 -7355 0
-1706 7356 0
-7356 7357 0
-1707 -7356 0
-1707 7357 0
-7357 7358 0
-1708 -7357 0
-1708 7358 0
-7358 7359 0
-1709 -7358 0
-1709 7359 0
-7359 7360 0
-1710 -7359 0
-1710 7360 0
-7360 7361 0
-1711 -7360 0
-1711 7361 0
-7361 7362 0
-1712 -7361 0
-1712 7362 0
-7362 7363 0
-1713 -7362 0
-1713 7363 0
-7363 7364 0
-1714 -7363 0
-1714 7364 0
-7364 7365 0
-1715 -7364 0
-1715 7365 0
-7365 7366 0
-1716 -7365 0
-1716 7366 0
-7366 7367 0
-1717 -7366 0
-1717 7367 0
-7367 7368 0
-1718 -7367 0
-1718 7368 0
-7368 7369 0
-1719 -7368 0
-1719 7369 0
-7369 7370 0
-1720 -7369 0
-1720 7370 0
-7370 7371 0
-1721 -7370 0
-1721 7371 0
-7371 7372 0
-1722 -7371 0
-1722 7372 0
-7372 7373 0
-1723 -7372 0
-1723 7373 0
-7373 7374 0
-1724 -7373 0
-1724 7374 0
-7374 7375 0
-1725 -7374 0
-1725 7375 0
-7375 7376 0
-1726 -7375 0
-1726 7376 0
-7376 7377 0
-1727 -7376 0
-1727 7377 0
-7377 7378 0
-1728 -7377 0
-1728 7378 0
-7378 7379 0
-1729 -7378 0
-1729 7379 0
-7379 7380 0
-1730 -7379 0
-1730 7380 0
-7380 7381 0
-1731 -7380 0
-1731 7381 0
-7381 7382 0
-1732 -7381 0
-1732 7382 0
-7382 7383 0
-1733 -7382 0
-1733 7383 0
-7383 7384 0
-1734 -7383 0
-1734 7384 0
-7384 7385 0
-1735 -7384 0
-1735 7385 0
-7385 7386 0
-1736 -7385 0
-1736 7386 0
-7386 7387 0
-1737 -7386 0
-1737 7387 0
-7387 7388 0
-1738 -7387 0
-1738 7388 0
-7388 7389 0
-1739 -7388 0
-1739 7389 0
-7389 7390 0
-1740 -7389 0
-1740 7390 0
-7390 7391 0
-1741 -7390 0
-1741 7391 0
-7391 7392 0
-1742 -7391 0
-1742 7392 0
-7392 7393 0
-1743 -7392 0
-1743 7393 0
-7393 7394 0
-1744 -7393 0
-1744 7394 0
-7394 7395 0
-1745 -7394 0
-1745 7395 0
-7395 7396 0
-1746 -7395 0
-1746 7396 0
-7396 7397 0
-1747 -7396 0
-1747 7397 0
-7397 7398 0
-1748 -7397 0
-1748 7398 0
-7398 7399 0
-1749 -7398 0
-1749 7399 0
-7399 7400 0
-1750 -7399 0
-1750 7400 0
-7400 7401 0
-1751 -7400 0
-1751 7401 0
-7401 7402 0
-1752 -7401 0
-1752 7402 0
-7402 7403 0
-1753 -7402 0
-1753 7403 0
-7403 7404 0
-1754 -7403 0
-1754 7404 0
-7404 7405 0
-1755 -7404 0
-1755 7405 0
-7405 7406 0
-1756 -7405 0
-1756 7406 0
-7406 7407 0
-1757 -7406 0
-1757 7407 0
-7407 7408 0
-1758 -7407 0
-1758 7408 0
-7408 7409 0
-1759 -7408 0
-1759 7409 0
-7409 7410 0
-1760 -7409 0
-1760 7410 0
-7410 7411 0
-1761 -7410 0
-1761 7411 0
-7411 7412 0
-1762 -7411 0
-1762 7412 0
-7412 7413 0
-1763 -7412 0
-1763 7413 0
-7413 7414 0
-1764 -7413 0
-1764 7414 0
-7414 7415 0
-1765 -7414 0
-1765 7415 0
-7415 7416 0
-1766 -7415 0
-1766 7416 0
-7416 7417 0
-1767 -7416 0
-1767 7417 0
-7417 7418 0
-1768 -7417 0
-1768 7418 0
-7418 7419 0
-1769 -7418 0
-1769 7419 0
-7419 7420 0
-1770 -7419 0
-1770 7420 0
-7420 7421 0
-1771 -7420 0
-1771 7421 0
-7421 7422 0
-1772 -7421 0
-1772 7422 0
-7422 7423 0
-1773 -7422 0
-1773 7423 0
-7423 7424 0
-1774 -7423 0
-1774 7424 0
-7424 7425 0
-1775 -7424 0
-1775 7425 0
-7425 7426 0
-1776 -7425 0
-1776 7426 0
-7426 7427 0
-1777 -7426 0
-1777 7427 0
-7427 7428 0
-1778 -7427 0
-1778 7428 0
-7428 7429 0
-1779 -7428 0
-1779 7429 0
-7429 7430 0
-1780 -7429 0
-1780 7430 0
-7430 7431 0
-1781 -7430 0
-1781 7431 0
-7431 7432 0
-1782 -7431 0
-1782 7432 0
-7432 7433 0
-1783 -7432 0
-1783 7433 0
-7433 7434 0
-1784 -7433 0
-1784 7434 0
-7434 7435 0
-1785 -7434 0
-1785 7435 0
-7435 7436 0
-1786 -7435 0
-1786 7436 0
-7436 7437 0
-1787 -7436 0
-1787 7437 0
-7437 7438 0
-1788 -7437 0
-1788 7438 0
-7438 7439 0
-1789 -7438 0
-1789 7439 0
-7439 7440 0
-1790 -7439 0
-1790 7440 0
-7440 7441 0
-1791 -7440 0
-1791 7441 0
-7441 7442 0
-1792 -7441 0
-1792 7442 0
-7442 7443 0
-1793 -7442 0
-1793 7443 0
-7443 7444 0
-1794 -7443 0
-1794 7444 0
-7444 7445 0
-1795 -7444 0
-1795 7445 0
-7445 7446 0
-1796 -7445 0
-1796 7446 0
-7446 7447 0
-1797 -7446 0
-1797 7447 0
-7447 7448 0
-1798 -7447 0
-1798 7448 0
-7448 7449 0
-1799 -7448 0
-1799 7449 0
-7449 7450 0
-1800 -7449 0
-1800 7450 0
-7450 7451 0
-1801 -7450 0
-1801 7451 0
-7451 7452 0
-1802 -7451 0
-1802 7452 0
-7452 7453 0
-1803 -7452 0
-1803 7453 0
-7453 7454 0
-1804 -7453 0
-1804 7454 0
-7454 7455 0
-1805 -7454 0
-1805 7455 0
-7455 7456 0
-1806 -7455 0
-1806 7456 0
-7456 7457 0
-1807 -7456 0
-1807 7457 0
-7457 7458 0
-1808 -7457 0
-1808 7458 0
-7458 7459 0
-1809 -7458 0
-1809 7459 0
-7459 7460 0
-1810 -7459 0
-1810 7460 0
-7460 7461 0
-1811 -7460 0
-1811 7461 0
-7461 7462 0
-1812 -7461 0
-1812 7462 0
-7462 7463 0
-1813 -7462 0
-1813 7463 0
-7463 7464 0
-1814 -7463 0
-1814 7464 0
-7464 7465 0
-1815 -7464 0
-1815 7465 0
-7465 7466 0
-1816 -7465 0
-1816 7466 0
-7466 7467 0
-1817 -7466 0
-1817 7467 0
-7467 7468 0
-1818 -7467 0
-1818 7468 0
-7468 7469 0
-1819 -7468 0
-1819 7469 0
-7469 7470 0
-1820 -7469 0
-1820 7470 0
-7470 7471 0
-1821 -7470 0
-1821 7471 0
-7471 7472 0
-1822 -7471 0
-1822 7472 0
-7472 7473 0
-1823 -7472 0
-1823 7473 0
-7473 7474 0
-1824 -7473 0
-1824 7474 0
-7474 7475 0
-1825 -7474 0
-1825 7475 0
-7475 7476 0
-1826 -7475 0
-1826 7476 0
-7476 7477 0
-1827 -7476 0
-1827 7477 0
-7477 7478 0
-1828 -7477 0
-1828 7478 0
-7478 7479 0
-1829 -7478 0
-1829 7479 0
-7479 7480 0
-1830 -7479 0
-1830 7480 0
-7480 7481 0
-1831 -7480 0
-1831 7481 0
-7481 7482 0
-1832 -7481 0
-1832 7482 0
-7482 7483 0
-1833 -7482 0
-1833 7483 0
-7483 7484 0
-1834 -7483 0
-1834 7484 0
-7484 7485 0
-1835 -7484 0
-1835 7485 0
-7485 7486 0
-1836 -7485 0
-1836 7486 0
-7486 7487 0
-1837 -7486 0
-1837 7487 0
-7487 7488 0
-1838 -7487 0
-1838 7488 0
-7488 7489 0
-1839 -7488 0
-1839 7489 0
-7489 7490 0
-1840 -7489 0
-1840 7490 0
-7490 7491 0
-1841 -7490 0
-1841 7491 0
-7491 7492 0
-1842 -7491 0
-1842 7492 0
-7492 7493 0
-1843 -7492 0
-1843 7493 0
-7493 7494 0
-1844 -7493 0
-1844 7494 0
-7494 7495 0
-1845 -7494 0
-1845 7495 0
-7495 7496 0
-1846 -7495 0
-1846 7496 0
-7496 7497 0
-1847 -7496 0
-1847 7497 0
-7497 7498 0
-1848 -7497 0
-1848 7498 0
-7498 7499 0
-1849 -7498 0
-1849 7499 0
-7499 7500 0
-1850 -7499 0
-1850 7500 0
-7500 7501 0
-1851 -7500 0
-1851 7501 0
-7501 7502 0
-1852 -7501 0
-1852 7502 0
-7502 7503 0
-1853 -7502 0
-1853 7503 0
-7503 7504 0
-1854 -7503 0
-1854 7504 0
-7504 7505 0
-1855 -7504 0
-1855 7505 0
-7505 7506 0
-1856 -7505 0
-1856 7506 0
-7506 7507 0
-1857 -7506 0
-1857 7507 0
-7507 7508 0
-1858 -7507 0
-1858 7508 0
-7508 7509 0
-1859 -7508 0
-1859 7509 0
-7509 7510 0
-1860 -7509 0
-1860 7510 0
-7510 7511 0
-1861 -7510 0
-1861 7511 0
-7511 7512 0
-1862 -7511 0
-1862 7512 0
-7512 7513 0
-1863 -7512 0
-1863 7513 0
-7513 7514 0
-1864 -7513 0
-1864 7514 0
-7514 7515 0
-1865 -7514 0
-1865 7515 0
-7515 7516 0
-1866 -7515 0
-1866 7516 0
-7516 7517 0
-1867 -7516 0
-1867 7517 0
-7517 7518 0
-1868 -7517 0
-1868 7518 0
-7518 7519 0
-1869 -7518 0
-1869 7519 0
-7519 7520 0
-1870 -7519 0
-1870 7520 0
-7520 7521 0
-1871 -7520 0
-1871 7521 0
-7521 7522 0
-1872 -7521 0
-1872 7522 0
-7522 7523 0
-1873 -7522 0
-1873 7523 0
-7523 7524 0
-1874 -7523 0
-1874 7524 0
-7524 7525 0
-1875 -7524 0
-1875 7525 0
-7525 7526 0
-1876 -7525 0
-1876 7526 0
-7526 7527 0
-1877 -7526 0
-1877 7527 0
-7527 7528 0
-1878 -7527 0
-1878 7528 0
-7528 7529 0
-1879 -7528 0
-1879 7529 0
-7529 7530 0
-1880 -7529 0
-1880 7530 0
-7530 7531 0
-1881 -7530 0
-1881 7531 0
-7531 7532 0
-1882 -7531 0
-1882 7532 0
-7532 7533 0
-1883 -7532 0
-1883 7533 0
-7533 7534 0
-1884 -7533 0
-1884 7534 0
-7534 7535 0
-1885 -7534 0
-1885 7535 0
-7535 7536 0
-1886 -7535 0
-1886 7536 0
-7536 7537 0
-1887 -7536 0
-1887 7537 0
-7537 7538 0
-1888 -7537 0
-1888 7538 0
-7538 7539 0
-1889 -7538 0
-1889 7539 0
-7539 7540 0
-1890 -7539 0
-1890 7540 0
-7540 7541 0
-1891 -7540 0
-1891 7541 0
-7541 7542 0
-1892 -7541 0
-1892 7542 0
-7542 7543 0
-1893 -7542 0
-1893 7543 0
-7543 7544 0
-1894 -7543 0
-1894 7544 0
-7544 7545 0
-1895 -7544 0
-1895 7545 0
-7545 7546 0
-1896 -7545 0
-1896 7546 0
-7546 7547 0
-1897 -7546 0
-1897 7547 0
-7547 7548 0
-1898 -7547 0
-1898 7548 0
-7548 7549 0
-1899 -7548 0
-1899 7549 0
-7549 7550 0
-1900 -7549 0
-1900 7550 0
-7550 7551 0
-1901 -7550 0
-1901 7551 0
-7551 7552 0
-1902 -7551 0
-1902 7552 0
-7552 7553 0
-1903 -7552 0
-1903 7553 0
-7553 7554 0
-1904 -7553 0
-1904 7554 0
-7554 7555 0
-1905 -7554 0
-1905 7555 0
-7555 7556 0
-1906 -7555 0
-1906 7556 0
-7556 7557 0
-1907 -7556 0
-1907 7557 0
-7557 7558 0
-1908 -7557 0
-1908 7558 0
-7558 7559 0
-1909 -7558 0
-1909 7559 0
-7559 7560 0
-1910 -7559 0
-1910 7560 0
-7560 7561 0
-1911 -7560 0
-1911 7561 0
-7561 7562 0
-1912 -7561 0
-1912 7562 0
-7562 7563 0
-1913 -7562 0
-1913 7563 0
-7563 7564 0
-1914 -7563 0
-1914 7564 0
-7564 7565 0
-1915 -7564 0
-1915 7565 0
-7565 7566 0
-1916 -7565 0
-1916 7566 0
-7566 7567 0
-1917 -7566 0
-1917 7567 0
-7567 7568 0
-1918 -7567 0
-1918 7568 0
-7568 7569 0
-1919 -7568 0
-1919 7569 0
-7569 7570 0
-1920 -7569 0
-1920 7570 0
-7570 7571 0
-1921 -7570 0
-1921 7571 0
-7571 7572 0
-1922 -7571 0
-1922 7572 0
-7572 7573 0
-1923 -7572 0
-1923 7573 0
-7573 7574 0
-1924 -7573 0
-1924 7574 0
-7574 7575 0
-1925 -7574 0
-1925 7575 0
-7575 7576 0
-1926 -7575 0
-1926 7576 0
-7576 7577 0
-1927 -7576 0
-1927 7577 0
-7577 7578 0
-1928 -7577 0
-1928 7578 0
-7578 7579 0
-1929 -7578 0
-1929 7579 0
-7579 7580 0
-1930 -7579 0
-1930 7580 0
-7580 7581 0
-1931 -7580 0
-1931 7581 0
-7581 7582 0
-1932 -7581 0
-1932 7582 0
-7582 7583 0
-1933 -7582 0
-1933 7583 0
-7583 7584 0
-1934 -7583 0
-1934 7584 0
-7584 7585 0
-1935 -7584 0
-1935 7585 0
-7585 7586 0
-1936 -7585 0
-1936 7586 0
-7586 7587 0
-1937 -7586 0
-1937 7587 0
-7587 7588 0
-1938 -7587 0
-1938 7588 0
-7588 7589 0
-1939 -7588 0
-1939 7589 0
-7589 7590 0
-1940 -7589 0
-1940 7590 0
-7590 7591 0
-1941 -7590 0
-1941 7591 0
-7591 7592 0
-1942 -7591 0
-1942 7592 0
-7592 7593 0
-1943 -7592 0
-1943 7593 0
-7593 7594 0
-1944 -7593 0
-1944 7594 0
-7594 7595 0
-1945 -7594 0
-1945 7595 0
-7595 7596 0
-1946 -7595 0
-1946 7596 0
-7596 7597 0
-1947 -7596 0
-1947 7597 0
-7597 7598 0
-1948 -7597 0
-1948 7598 0
-7598 7599 0
-1949 -7598 0
-1949 7599 0
-7599 7600 0
-1950 -7599 0
-1950 7600 0
-7600 7601 0
-1951 -7600 0
-1951 7601 0
-7601 7602 0
-1952 -7601 0
-1952 7602 0
-7602 7603 0
-1953 -7602 0
-1953 7603 0
-7603 7604 0
-1954 -7603 0
-1954 7604 0
-7604 7605 0
-1955 -7604 0
-1955 7605 0
-7605 7606 0
-1956 -7605 0
-1956 7606 0
-7606 7607 0
-1957 -7606 0
-1957 7607 0
-7607 7608 0
-1958 -7607 0
-1958 7608 0
-7608 7609 0
-1959 -7608 0
-1959 7609 0
-7609 7610 0
-1960 -7609 0
-1960 7610 0
-7610 7611 0
-1961 -7610 0
-1961 7611 0
-7611 7612 0
-1962 -7611 0
-1962 7612 0
-7612 7613 0
-1963 -7612 0
-1963 7613 0
-7613 7614 0
-1964 -7613 0
-1964 7614 0
-7614 7615 0
-1965 -7614 0
-1965 7615 0
-7615 7616 0
-1966 -7615 0
-1966 7616 0
-7616 7617 0
-1967 -7616 0
-1967 7617 0
-7617 7618 0
-1968 -7617 0
-1968 7618 0
-7618 7619 0
-1969 -7618 0
-1969 7619 0
-7619 7620 0
-1970 -7619 0
-1970 7620 0
-7620 7621 0
-1971 -7620 0
-1971 7621 0
-7621 7622 0
-1972 -7621 0
-1972 7622 0
-7622 7623 0
-1973 -7622 0
-1973 7623 0
-7623 7624 0
-1974 -7623 0
-1974 7624 0
-7624 7625 0
-1975 -7624 0
-1975 7625 0
-7625 7626 0
-1976 -7625 0
-1976 7626 0
-7626 7627 0
-1977 -7626 0
-1977 7627 0
-7627 7628 0
-1978 -7627 0
-1978 7628 0
-7628 7629 0
-1979 -7628 0
-1979 7629 0
-7629 7630 0
-1980 -7629 0
-1980 7630 0
-7630 7631 0
-1981 -7630 0
-1981 7631 0
-7631 7632 0
-1982 -7631 0
-1982 7632 0
-7632 7633 0
-1983 -7632 0
-1983 7633 0
-7633 7634 0
-1984 -7633 0
-1984 7634 0
-7634 7635 0
-1985 -7634 0
-1985 7635 0
-7635 7636 0
-1986 -7635 0
-1986 7636 0
-7636 7637 0
-1987 -7636 0
-1987 7637 0
-7637 7638 0
-1988 -7637 0
-1988 7638 0
-7638 7639 0
-1989 -7638 0
-1989 7639 0
-7639 7640 0
-1990 -7639 0
-1990 7640 0
-7640 7641 0
-1991 -7640 0
-1991 7641 0
-7641 7642 0
-1992 -7641 0
-1992 7642 0
-7642 7643 0
-1993 -7642 0
-1993 7643 0
-7643 7644 0
-1994 -7643 0
-1994 7644 0
-7644 7645 0
-1995 -7644 0
-1995 7645 0
-7645 7646 0
-1996 -7645 0
-1996 7646 0
-7646 7647 0
-1997 -7646 0
-1997 7647 0
-7647 7648 0
-1998 -7647 0
-1998 7648 0
-7648 7649 0
-1999 -7648 0
-1999 7649 0
-7649 7650 0
-2000 -7649 0
-2000 7650 0
-7650 7651 0
-2001 -7650 0
-2001 7651 0
-7651 7652 0
-2002 -7651 0
-2002 7652 0
-7652 7653 0
-2003 -7652 0
-2003 7653 0
-7653 7654 0
-2004 -7653 0
-2004 7654 0
-7654 7655 0
-2005 -7654 0
-2005 7655 0
-7655 7656 0
-2006 -7655 0
-2006 7656 0
-7656 7657 0
-2007 -7656 0
-2007 7657 0
-7657 7658 0
-2008 -7657 0
-2008 7658 0
-7658 7659 0
-2009 -7658 0
-2009 7659 0
-7659 7660 0
-2010 -7659 0
-2010 7660 0
-7660 7661 0
-2011 -7660 0
-2011 7661 0
-7661 7662 0
-2012 -7661 0
-2012 7662 0
-7662 7663 0
-2013 -7662 0
-2013 7663 0
-7663 7664 0
-2014 -7663 0
-2014 7664 0
-7664 7665 0
-2015 -7664 0
-2015 7665 0
-7665 7666 0
-2016 -7665 0
-2016 7666 0
-7666 7667 0
-2017 -7666 0
-2017 7667 0
-7667 7668 0
-2018 -7667 0
-2018 7668 0
-7668 7669 0
-2019 -7668 0
-2019 7669 0
-7669 7670 0
-2020 -7669 0
-2020 7670 0
-7670 7671 0
-2021 -7670 0
-2021 7671 0
-7671 7672 0
-2022 -7671 0
-2022 7672 0
-7672 7673 0
-2023 -7672 0
-2023 7673 0
-7673 7674 0
-2024 -7673 0
-2024 7674 0
-7674 7675 0
-2025 -7674 0
-2025 7675 0
-7675 7676 0
-2026 -7675 0
-2026 7676 0
-7676 7677 0
-2027 -7676 0
-2027 7677 0
-7677 7678 0
-2028 -7677 0
-2028 7678 0
-7678 7679 0
-2029 -7678 0
-2029 7679 0
-7679 7680 0
-2030 -7679 0
-2030 7680 0
-7680 7681 0
-2031 -7680 0
-2031 7681 0
-7681 7682 0
-2032 -7681 0
-2032 7682 0
-7682 7683 0
-2033 -7682 0
-2033 7683 0
-7683 7684 0
-2034 -7683 0
-2034 7684 0
-7684 7685 0
-2035 -7684 0
-2035 7685 0
-7685 7686 0
-2036 -7685 0
-2036 7686 0
-7686 7687 0
-2037 -7686 0
-2037 7687 0
-7687 7688 0
-2038 -7687 0
-2038 7688 0
-7688 7689 0
-2039 -7688 0
-2039 7689 0
-7689 7690 0
-2040 -7689 0
-2040 7690 0
-7690 7691 0
-2041 -7690 0
-2041 7691 0
-7691 7692 0
-2042 -7691 0
-2042 7692 0
-7692 7693 0
-2043 -7692 0
-2043 7693 0
-7693 7694 0
-2044 -7693 0
-2044 7694 0
-7694 7695 0
-2045 -7694 0
-2045 7695 0
-7695 7696 0
-2046 -7695 0
-2046 7696 0
-7696 7697 0
-2047 -7696 0
-2047 7697 0
-7697 7698 0
-2048 -7697 0
-2048 7698 0
-7698 7699 0
-2049 -7698 0
-2049 7699 0
-7699 7700 0
-2050 -7699 0
-2050 7700 0
-7700 7701 0
-2051 -7700 0
-2051 7701 0
-7701 7702 0
-2052 -7701 0
-2052 7702 0
-7702 7703 0
-2053 -7702 0
-2053 7703 0
-7703 7704 0
-2054 -7703 0
-2054 7704 0
-7704 7705 0
-2055 -7704 0
-2055 7705 0
-7705 7706 0
-2056 -7705 0
-2056 7706 0
-7706 7707 0
-2057 -7706 0
-2057 7707 0
-7707 7708 0
-2058 -7707 0
-2058 7708 0
-7708 7709 0
-2059 -7708 0
-2059 7709 0
-7709 7710 0
-2060 -7709 0
-2060 7710 0
-7710 7711 0
-2061 -7710 0
-2061 7711 0
-7711 7712 0
-2062 -7711 0
-2062 7712 0
-7712 7713 0
-2063 -7712 0
-2063 7713 0
-7713 7714 0
-2064 -7713 0
-2064 7714 0
-7714 7715 0
-2065 -7714 0
-2065 7715 0
-7715 7716 0
-2066 -7715 0
-2066 7716 0
-7716 7717 0
-2067 -7716 0
-2067 7717 0
-7717 7718 0
-2068 -7717 0
-2068 7718 0
-7718 7719 0
-2069 -7718 0
-2069 7719 0
-7719 7720 0
-2070 -7719 0
-2070 7720 0
-7720 7721 0
-2071 -7720 0
-2071 7721 0
-7721 7722 0
-2072 -7721 0
-2072 7722 0
-7722 7723 0
-2073 -7722 0
-2073 7723 0
-7723 7724 0
-2074 -7723 0
-2074 7724 0
-7724 7725 0
-2075 -7724 0
-2075 7725 0
-7725 7726 0
-2076 -7725 0
-2076 7726 0
-7726 7727 0
-2077 -7726 0
-2077 7727 0
-7727 7728 0
-2078 -7727 0
-2078 7728 0
-7728 7729 0
-2079 -7728 0
-2079 7729 0
-7729 7730 0
-2080 -7729 0
-2080 7730 0
-7730 7731 0
-2081 -7730 0
-2081 7731 0
-7731 7732 0
-2082 -7731 0
-2082 7732 0
-7732 7733 0
-2083 -7732 0
-2083 7733 0
-7733 7734 0
-2084 -7733 0
-2084 7734 0
-7734 7735 0
-2085 -7734 0
-2085 7735 0
-7735 7736 0
-2086 -7735 0
-2086 7736 0
-7736 7737 0
-2087 -7736 0
-2087 7737 0
-7737 7738 0
-2088 -7737 0
-2088 7738 0
-7738 7739 0
-2089 -7738 0
-2089 7739 0
-7739 7740 0
-2090 -7739 0
-2090 7740 0
-7740 7741 0
-2091 -7740 0
-2091 7741 0
-7741 7742 0
-2092 -7741 0
-2092 7742 0
-7742 7743 0
-2093 -7742 0
-2093 7743 0
-7743 7744 0
-2094 -7743 0
-2094 7744 0
-7744 7745 0
-2095 -7744 0
-2095 7745 0
-7745 7746 0
-2096 -7745 0
-2096 7746 0
-7746 7747 0
-2097 -7746 0
-2097 7747 0
-7747 7748 0
-2098 -7747 0
-2098 7748 0
-7748 7749 0
-2099 -7748 0
-2099 7749 0
-7749 7750 0
-2100 -7749 0
-2100 7750 0
-7750 7751 0
-2101 -7750 0
-2101 7751 0
-7751 7752 0
-2102 -7751 0
-2102 7752 0
-7752 7753 0
-2103 -7752 0
-2103 7753 0
-7753 7754 0
-2104 -7753 0
-2104 7754 0
-7754 7755 0
-2105 -7754 0
-2105 7755 0
-7755 7756 0
-2106 -7755 0
-2106 7756 0
-7756 7757 0
-2107 -7756 0
-2107 7757 0
-7757 7758 0
-2108 -7757 0
-2108 7758 0
-7758 7759 0
-2109 -7758 0
-2109 7759 0
-7759 7760 0
-2110 -7759 0
-2110 7760 0
-7760 7761 0
-2111 -7760 0
-2111 7761 0
-7761 7762 0
-2112 -7761 0
-2112 7762 0
-7762 7763 0
-2113 -7762 0
-2113 7763 0
-7763 7764 0
-2114 -7763 0
-2114 7764 0
-7764 7765 0
-2115 -7764 0
-2115 7765 0
-7765 7766 0
-2116 -7765 0
-2116 7766 0
-7766 7767 0
-2117 -7766 0
-2117 7767 0
-7767 7768 0
-2118 -7767 0
-2118 7768 0
-7768 7769 0
-2119 -7768 0
-2119 7769 0
-7769 7770 0
-2120 -7769 0
-2120 7770 0
-7770 7771 0
-2121 -7770 0
-2121 7771 0
-7771 7772 0
-2122 -7771 0
-2122 7772 0
-7772 7773 0
-2123 -7772 0
-2123 7773 0
-7773 7774 0
-2124 -7773 0
-2124 7774 0
-7774 7775 0
-2125 -7774 0
-2125 7775 0
-7775 7776 0
-2126 -7775 0
-2126 7776 0
-7776 7777 0
-2127 -7776 0
-2127 7777 0
-7777 7778 0
-2128 -7777 0
-2128 7778 0
-7778 7779 0
-2129 -7778 0
-2129 7779 0
-7779 7780 0
-2130 -7779 0
-2130 7780 0
-7780 7781 0
-2131 -7780 0
-2131 7781 0
-7781 7782 0
-2132 -7781 0
-2132 7782 0
-7782 7783 0
-2133 -7782 0
-2133 7783 0
-7783 7784 0
-2134 -7783 0
-2134 7784 0
-7784 7785 0
-2135 -7784 0
-2135 7785 0
-7785 7786 0
-2136 -7785 0
-2136 7786 0
-7786 7787 0
-2137 -7786 0
-2137 7787 0
-7787 7788 0
-2138 -7787 0
-2138 7788 0
-7788 7789 0
-2139 -7788 0
-2139 7789 0
-7789 7790 0
-2140 -7789 0
-2140 7790 0
-7790 7791 0
-2141 -7790 0
-2141 7791 0
-7791 7792 0
-2142 -7791 0
-2142 7792 0
-7792 7793 0
-2143 -7792 0
-2143 7793 0
-7793 7794 0
-2144 -7793 0
-2144 7794 0
-7794 7795 0
-2145 -7794 0
-2145 7795 0
-7795 7796 0
-2146 -7795 0
-2146 7796 0
-7796 7797 0
-2147 -7796 0
-2147 7797 0
-7797 7798 0
-2148 -7797 0
-2148 7798 0
-7798 7799 0
-2149 -7798 0
-2149 7799 0
-7799 7800 0
-2150 -7799 0
-2150 7800 0
-7800 7801 0
-2151 -7800 0
-2151 7801 0
-7801 7802 0
-2152 -7801 0
-2152 7802 0
-7802 7803 0
-2153 -7802 0
-2153 7803 0
-7803 7804 0
-2154 -7803 0
-2154 7804 0
-7804 7805 0
-2155 -7804 0
-2155 7805 0
-7805 7806 0
-2156 -7805 0
-2156 7806 0
-7806 7807 0
-2157 -7806 0
-2157 7807 0
-7807 7808 0
-2158 -7807 0
-2158 7808 0
-7808 7809 0
-2159 -7808 0
-2159 7809 0
-7809 7810 0
-2160 -7809 0
-2160 7810 0
-7810 7811 0
-2161 -7810 0
-2161 7811 0
-7811 7812 0
-2162 -7811 0
-2162 7812 0
-7812 7813 0
-2163 -7812 0
-2163 7813 0
-7813 7814 0
-2164 -7813 0
-2164 7814 0
-7814 7815 0
-2165 -7814 0
-2165 7815 0
-7815 7816 0
-2166 -7815 0
-2166 7816 0
-7816 7817 0
-2167 -7816 0
-2167 7817 0
-7817 7818 0
-2168 -7817 0
-2168 7818 0
-7818 7819 0
-2169 -7818 0
-2169 7819 0
-7819 7820 0
-2170 -7819 0
-2170 7820 0
-7820 7821 0
-2171 -7820 0
-2171 7821 0
-7821 7822 0
-2172 -7821 0
-2172 7822 0
-7822 7823 0
-2173 -7822 0
-2173 7823 0
-7823 7824 0
-2174 -7823 0
-2174 7824 0
-2175 -7824 0
-2176 7825 0
-7825 7826 0
-2177 -7825 0
-2177 7826 0
-7826 7827 0
-2178 -7826 0
-2178 7827 0
-7827 7828 0
-2179 -7827 0
-2179 7828 0
-7828 7829 0
-2180 -7828 0
-2180 7829 0
-7829 7830 0
-2181 -7829 0
-2181 7830 0
-7830 7831 0
-2182 -7830 0
-2182 7831 0
-7831 7832 0
-2183 -7831 0
-2183 7832 0
-7832 7833 0
-2184 -7832 0
-2184 7833 0
-7833 7834 0
-2185 -7833 0
-2185 7834 0
-7834 7835 0
-2186 -7834 0
-2186 7835 0
-7835 7836 0
-2187 -7835 0
-2187 7836 0
-7836 7837 0
-2188 -7836 0
-2188 7837 0
-7837 7838 0
-2189 -7837 0
-2189 7838 0
-7838 7839 0
-2190 -7838 0
-2190 7839 0
-7839 7840 0
-2191 -7839 0
-2191 7840 0
-7840 7841 0
-2192 -7840 0
-2192 7841 0
-7841 7842 0
-2193 -7841 0
-2193 7842 0
-7842 7843 0
-2194 -7842 0
-2194 7843 0
-7843 7844 0
-2195 -7843 0
-2195 7844 0
-7844 7845 0
-2196 -7844 0
-2196 7845 0
-7845 7846 0
-2197 -7845 0
-2197 7846 0
-7846 7847 0
-2198 -7846 0
-2198 7847 0
-7847 7848 0
-2199 -7847 0
-2199 7848 0
-7848 7849 0
-2200 -7848 0
-2200 7849 0
-7849 7850 0
-2201 -7849 0
-2201 7850 0
-7850 7851 0
-2202 -7850 0
-2202 7851 0
-7851 7852 0
-2203 -7851 0
-2203 7852 0
-7852 7853 0
-2204 -7852 0
-2204 7853 0
-7853 7854 0
-2205 -7853 0
-2205 7854 0
-7854 7855 0
-2206 -7854 0
-2206 7855 0
-7855 7856 0
-2207 -7855 0
-2207 7856 0
-7856 7857 0
-2208 -7856 0
-2208 7857 0
-7857 7858 0
-2209 -7857 0
-2209 7858 0
-7858 7859 0
-2210 -7858 0
-2210 7859 0
-7859 7860 0
-2211 -7859 0
-2211 7860 0
-7860 7861 0
-2212 -7860 0
-2212 7861 0
-7861 7862 0
-2213 -7861 0
-2213 7862 0
-7862 7863 0
-2214 -7862 0
-2214 7863 0
-7863 7864 0
-2215 -7863 0
-2215 7864 0
-7864 7865 0
-2216 -7864 0
-2216 7865 0
-7865 7866 0
-2217 -7865 0
-2217 7866 0
-7866 7867 0
-2218 -7866 0
-2218 7867 0
-7867 7868 0
-2219 -7867 0
-2219 7868 0
-7868 7869 0
-2220 -7868 0
-2220 7869 0
-7869 7870 0
-2221 -7869 0
-2221 7870 0
-7870 7871 0
-2222 -7870 0
-2222 7871 0
-7871 7872 0
-2223 -7871 0
-2223 7872 0
-7872 7873 0
-2224 -7872 0
-2224 7873 0
-7873 7874 0
-2225 -7873 0
-2225 7874 0
-7874 7875 0
-2226 -7874 0
-2226 7875 0
-7875 7876 0
-2227 -7875 0
-2227 7876 0
-7876 7877 0
-2228 -7876 0
-2228 7877 0
-7877 7878 0
-2229 -7877 0
-2229 7878 0
-7878 7879 0
-2230 -7878 0
-2230 7879 0
-7879 7880 0
-2231 -7879 0
-2231 7880 0
-7880 7881 0
-2232 -7880 0
-2232 7881 0
-7881 7882 0
-2233 -7881 0
-2233 7882 0
-7882 7883 0
-2234 -7882 0
-2234 7883 0
-7883 7884 0
-2235 -7883 0
-2235 7884 0
-7884 7885 0
-2236 -7884 0
-2236 7885 0
-7885 7886 0
-2237 -7885 0
-2237 7886 0
-7886 7887 0
-2238 -7886 0
-2238 7887 0
-7887 7888 0
-2239 -7887 0
-2239 7888 0
-7888 7889 0
-2240 -7888 0
-2240 7889 0
-7889 7890 0
-2241 -7889 0
-2241 7890 0
-7890 7891 0
-2242 -7890 0
-2242 7891 0
-7891 7892 0
-2243 -7891 0
-2243 7892 0
-7892 7893 0
-2244 -7892 0
-2244 7893 0
-7893 7894 0
-2245 -7893 0
-2245 7894 0
-7894 7895 0
-2246 -7894 0
-2246 7895 0
-7895 7896 0
-2247 -7895 0
-2247 7896 0
-7896 7897 0
-2248 -7896 0
-2248 7897 0
-7897 7898 0
-2249 -7897 0
-2249 7898 0
-7898 7899 0
-2250 -7898 0
-2250 7899 0
-7899 7900 0
-2251 -7899 0
-2251 7900 0
-7900 7901 0
-2252 -7900 0
-2252 7901 0
-7901 7902 0
-2253 -7901 0
-2253 7902 0
-7902 7903 0
-2254 -7902 0
-2254 7903 0
-7903 7904 0
-2255 -7903 0
-2255 7904 0
-7904 7905 0
-2256 -7904 0
-2256 7905 0
-7905 7906 0
-2257 -7905 0
-2257 7906 0
-7906 7907 0
-2258 -7906 0
-2258 7907 0
-7907 7908 0
-2259 -7907 0
-2259 7908 0
-7908 7909 0
-2260 -7908 0
-2260 7909 0
-7909 7910 0
-2261 -7909 0
-2261 7910 0
-7910 7911 0
-2262 -7910 0
-2262 7911 0
-7911 7912 0
-2263 -7911 0
-2263 7912 0
-7912 7913 0
-2264 -7912 0
-2264 7913 0
-7913 7914 0
-2265 -7913 0
-2265 7914 0
-7914 7915 0
-2266 -7914 0
-2266 7915 0
-7915 7916 0
-2267 -7915 0
-2267 7916 0
-7916 7917 0
-2268 -7916 0
-2268 7917 0
-7917 7918 0
-2269 -7917 0
-2269 7918 0
-7918 7919 0
-2270 -7918 0
-2270 7919 0
-7919 7920 0
-2271 -7919 0
-2271 7920 0
-7920 7921 0
-2272 -7920 0
-2272 7921 0
-7921 7922 0
-2273 -7921 0
-2273 7922 0
-7922 7923 0
-2274 -7922 0
-2274 7923 0
-7923 7924 0
-2275 -7923 0
-2275 7924 0
-7924 7925 0
-2276 -7924 0
-2276 7925 0
-7925 7926 0
-2277 -7925 0
-2277 7926 0
-7926 7927 0
-2278 -7926 0
-2278 7927 0
-7927 7928 0
-2279 -7927 0
-2279 7928 0
-7928 7929 0
-2280 -7928 0
-2280 7929 0
-7929 7930 0
-2281 -7929 0
-2281 7930 0
-7930 7931 0
-2282 -7930 0
-2282 7931 0
-7931 7932 0
-2283 -7931 0
-2283 7932 0
-7932 7933 0
-2284 -7932 0
-2284 7933 0
-7933 7934 0
-2285 -7933 0
-2285 7934 0
-7934 7935 0
-2286 -7934 0
-2286 7935 0
-7935 7936 0
-2287 -7935 0
-2287 7936 0
-7936 7937 0
-2288 -7936 0
-2288 7937 0
-7937 7938 0
-2289 -7937 0
-2289 7938 0
-7938 7939 0
-2290 -7938 0
-2290 7939 0
-7939 7940 0
-2291 -7939 0
-2291 7940 0
-7940 7941 0
-2292 -7940 0
-2292 7941 0
-7941 7942 0
-2293 -7941 0
-2293 7942 0
-7942 7943 0
-2294 -7942 0
-2294 7943 0
-7943 7944 0
-2295 -7943 0
-2295 7944 0
-7944 7945 0
-2296 -7944 0
-2296 7945 0
-7945 7946 0
-2297 -7945 0
-2297 7946 0
-7946 7947 0
-2298 -7946 0
-2298 7947 0
-7947 7948 0
-2299 -7947 0
-2299 7948 0
-7948 7949 0
-2300 -7948 0
-2300 7949 0
-7949 7950 0
-2301 -7949 0
-2301 7950 0
-7950 7951 0
-2302 -7950 0
-2302 7951 0
-7951 7952 0
-2303 -7951 0
-2303 7952 0
-7952 7953 0
-2304 -7952 0
-2304 7953 0
-7953 7954 0
-2305 -7953 0
-2305 7954 0
-7954 7955 0
-2306 -7954 0
-2306 7955 0
-7955 7956 0
-2307 -7955 0
-2307 7956 0
-7956 7957 0
-2308 -7956 0
-2308 7957 0
-7957 7958 0
-2309 -7957 0
-2309 7958 0
-7958 7959 0
-2310 -7958 0
-2310 7959 0
-7959 7960 0
-2311 -7959 0
-2311 7960 0
-7960 7961 0
-2312 -7960 0
-2312 7961 0
-7961 7962 0
-2313 -7961 0
-2313 7962 0
-7962 7963 0
-2314 -7962 0
-2314 7963 0
-7963 7964 0
-2315 -7963 0
-2315 7964 0
-7964 7965 0
-2316 -7964 0
-2316 7965 0
-7965 7966 0
-2317 -7965 0
-2317 7966 0
-7966 7967 0
-2318 -7966 0
-2318 7967 0
-7967 7968 0
-2319 -7967 0
-2319 7968 0
-7968 7969 0
-2320 -7968 0
-2320 7969 0
-7969 7970 0
-2321 -7969 0
-2321 7970 0
-7970 7971 0
-2322 -7970 0
-2322 7971 0
-7971 7972 0
-2323 -7971 0
-2323 7972 0
-7972 7973 0
-2324 -7972 0
-2324 7973 0
-7973 7974 0
-2325 -7973 0
-2325 7974 0
-7974 7975 0
-2326 -7974 0
-2326 7975 0
-7975 7976 0
-2327 -7975 0
-2327 7976 0
-7976 7977 0
-2328 -7976 0
-2328 7977 0
-7977 7978 0
-2329 -7977 0
-2329 7978 0
-7978 7979 0
-2330 -7978 0
-2330 7979 0
-7979 7980 0
-2331 -7979 0
-2331 7980 0
-7980 7981 0
-2332 -7980 0
-2332 7981 0
-7981 7982 0
-2333 -7981 0
-2333 7982 0
-7982 7983 0
-2334 -7982 0
-2334 7983 0
-7983 7984 0
-2335 -7983 0
-2335 7984 0
-7984 7985 0
-2336 -7984 0
-2336 7985 0
-7985 7986 0
-2337 -7985 0
-2337 7986 0
-7986 7987 0
-2338 -7986 0
-2338 7987 0
-7987 7988 0
-2339 -7987 0
-2339 7988 0
-7988 7989 0
-2340 -7988 0
-2340 7989 0
-7989 7990 0
-2341 -7989 0
-2341 7990 0
-7990 7991 0
-2342 -7990 0
-2342 7991 0
-7991 7992 0
-2343 -7991 0
-2343 7992 0
-7992 7993 0
-2344 -7992 0
-2344 7993 0
-7993 7994 0
-2345 -7993 0
-2345 7994 0
-7994 7995 0
-2346 -7994 0
-2346 7995 0
-7995 7996 0
-2347 -7995 0
-2347 7996 0
-7996 7997 0
-2348 -7996 0
-2348 7997 0
-7997 7998 0
-2349 -7997 0
-2349 7998 0
-7998 7999 0
-2350 -7998 0
-2350 7999 0
-7999 8000 0
-2351 -7999 0
-2351 8000 0
-8000 8001 0
-2352 -8000 0
-2352 8001 0
-8001 8002 0
-2353 -8001 0
-2353 8002 0
-8002 8003 0
-2354 -8002 0
-2354 8003 0
-8003 8004 0
-2355 -8003 0
-2355 8004 0
-8004 8005 0
-2356 -8004 0
-2356 8005 0
-8005 8006 0
-2357 -8005 0
-2357 8006 0
-8006 8007 0
-2358 -8006 0
-2358 8007 0
-8007 8008 0
-2359 -8007 0
-2359 8008 0
-8008 8009 0
-2360 -8008 0
-2360 8009 0
-8009 8010 0
-2361 -8009 0
-2361 8010 0
-8010 8011 0
-2362 -8010 0
-2362 8011 0
-8011 8012 0
-2363 -8011 0
-2363 8012 0
-8012 8013 0
-2364 -8012 0
-2364 8013 0
-8013 8014 0
-2365 -8013 0
-2365 8014 0
-8014 8015 0
-2366 -8014 0
-2366 8015 0
-8015 8016 0
-2367 -8015 0
-2367 8016 0
-8016 8017 0
-2368 -8016 0
-2368 8017 0
-8017 8018 0
-2369 -8017 0
-2369 8018 0
-8018 8019 0
-2370 -8018 0
-2370 8019 0
-8019 8020 0
-2371 -8019 0
-2371 8020 0
-8020 8021 0
-2372 -8020 0
-2372 8021 0
-8021 8022 0
-2373 -8021 0
-2373 8022 0
-8022 8023 0
-2374 -8022 0
-2374 8023 0
-8023 8024 0
-2375 -8023 0
-2375 8024 0
-8024 8025 0
-2376 -8024 0
-2376 8025 0
-8025 8026 0
-2377 -8025 0
-2377 8026 0
-8026 8027 0
-2378 -8026 0
-2378 8027 0
-8027 8028 0
-2379 -8027 0
-2379 8028 0
-8028 8029 0
-2380 -8028 0
-2380 8029 0
-8029 8030 0
-2381 -8029 0
-2381 8030 0
-8030 8031 0
-2382 -8030 0
-2382 8031 0
-8031 8032 0
-2383 -8031 0
-2383 8032 0
-8032 8033 0
-2384 -8032 0
-2384 8033 0
-8033 8034 0
-2385 -8033 0
-2385 8034 0
-8034 8035 0
-2386 -8034 0
-2386 8035 0
-8035 8036 0
-2387 -8035 0
-2387 8036 0
-8036 8037 0
-2388 -8036 0
-2388 8037 0
-8037 8038 0
-2389 -8037 0
-2389 8038 0
-8038 8039 0
-2390 -8038 0
-2390 8039 0
-8039 8040 0
-2391 -8039 0
-2391 8040 0
-8040 8041 0
-2392 -8040 0
-2392 8041 0
-8041 8042 0
-2393 -8041 0
-2393 8042 0
-8042 8043 0
-2394 -8042 0
-2394 8043 0
-8043 8044 0
-2395 -8043 0
-2395 8044 0
-8044 8045 0
-2396 -8044 0
-2396 8045 0
-8045 8046 0
-2397 -8045 0
-2397 8046 0
-8046 8047 0
-2398 -8046 0
-2398 8047 0
-8047 8048 0
-2399 -8047 0
-2399 8048 0
-8048 8049 0
-2400 -8048 0
-2400 8049 0
-8049 8050 0
-2401 -8049 0
-2401 8050 0
-8050 8051 0
-2402 -8050 0
-2402 8051 0
-8051 8052 0
-2403 -8051 0
-2403 8052 0
-8052 8053 0
-2404 -8052 0
-2404 8053 0
-8053 8054 0
-2405 -8053 0
-2405 8054 0
-8054 8055 0
-2406 -8054 0
-2406 8055 0
-8055 8056 0
-2407 -8055 0
-2407 8056 0
-8056 8057 0
-2408 -8056 0
-2408 8057 0
-8057 8058 0
-2409 -8057 0
-2409 8058 0
-8058 8059 0
-2410 -8058 0
-2410 8059 0
-8059 8060 0
-2411 -8059 0
-2411 8060 0
-8060 8061 0
-2412 -8060 0
-2412 8061 0
-8061 8062 0
-2413 -8061 0
-2413 8062 0
-8062 8063 0
-2414 -8062 0
-2414 8063 0
-8063 8064 0
-2415 -8063 0
-2415 8064 0
-8064 8065 0
-2416 -8064 0
-2416 8065 0
-8065 8066 0
-2417 -8065 0
-2417 8066 0
-8066 8067 0
-2418 -8066 0
-2418 8067 0
-8067 8068 0
-2419 -8067 0
-2419 8068 0
-8068 8069 0
-2420 -8068 0
-2420 8069 0
-8069 8070 0
-2421 -8069 0
-2421 8070 0
-8070 8071 0
-2422 -8070 0
-2422 8071 0
-8071 8072 0
-2423 -8071 0
-2423 8072 0
-8072 8073 0
-2424 -8072 0
-2424 8073 0
-8073 8074 0
-2425 -8073 0
-2425 8074 0
-8074 8075 0
-2426 -8074 0
-2426 8075 0
-8075 8076 0
-2427 -8075 0
-2427 8076 0
-8076 8077 0
-2428 -8076 0
-2428 8077 0
-8077 8078 0
-2429 -8077 0
-2429 8078 0
-8078 8079 0
-2430 -8078 0
-2430 8079 0
-8079 8080 0
-2431 -8079 0
-2431 8080 0
-8080 8081 0
-2432 -8080 0
-2432 8081 0
-8081 8082 0
-2433 -8081 0
-2433 8082 0
-8082 8083 0
-2434 -8082 0
-2434 8083 0
-8083 8084 0
-2435 -8083 0
-2435 8084 0
-8084 8085 0
-2436 -8084 0
-2436 8085 0
-8085 8086 0
-2437 -8085 0
-2437 8086 0
-8086 8087 0
-2438 -8086 0
-2438 8087 0
-8087 8088 0
-2439 -8087 0
-2439 8088 0
-8088 8089 0
-2440 -8088 0
-2440 8089 0
-8089 8090 0
-2441 -8089 0
-2441 8090 0
-8090 8091 0
-2442 -8090 0
-2442 8091 0
-8091 8092 0
-2443 -8091 0
-2443 8092 0
-8092 8093 0
-2444 -8092 0
-2444 8093 0
-8093 8094 0
-2445 -8093 0
-2445 8094 0
-8094 8095 0
-2446 -8094 0
-2446 8095 0
-8095 8096 0
-2447 -8095 0
-2447 8096 0
-8096 8097 0
-2448 -8096 0
-2448 8097 0
-8097 8098 0
-2449 -8097 0
-2449 8098 0
-8098 8099 0
-2450 -8098 0
-2450 8099 0
-8099 8100 0
-2451 -8099 0
-2451 8100 0
-8100 8101 0
-2452 -8100 0
-2452 8101 0
-8101 8102 0
-2453 -8101 0
-2453 8102 0
-8102 8103 0
-2454 -8102 0
-2454 8103 0
-8103 8104 0
-2455 -8103 0
-2455 8104 0
-8104 8105 0
-2456 -8104 0
-2456 8105 0
-8105 8106 0
-2457 -8105 0
-2457 8106 0
-8106 8107 0
-2458 -8106 0
-2458 8107 0
-8107 8108 0
-2459 -8107 0
-2459 8108 0
-8108 8109 0
-2460 -8108 0
-2460 8109 0
-8109 8110 0
-2461 -8109 0
-2461 8110 0
-8110 8111 0
-2462 -8110 0
-2462 8111 0
-8111 8112 0
-2463 -8111 0
-2463 8112 0
-8112 8113 0
-2464 -8112 0
-2464 8113 0
-8113 8114 0
-2465 -8113 0
-2465 8114 0
-8114 8115 0
-2466 -8114 0
-2466 8115 0
-8115 8116 0
-2467 -8115 0
-2467 8116 0
-8116 8117 0
-2468 -8116 0
-2468 8117 0
-8117 8118 0
-2469 -8117 0
-2469 8118 0
-8118 8119 0
-2470 -8118 0
-2470 8119 0
-8119 8120 0
-2471 -8119 0
-2471 8120 0
-8120 8121 0
-2472 -8120 0
-2472 8121 0
-8121 8122 0
-2473 -8121 0
-2473 8122 0
-8122 8123 0
-2474 -8122 0
-2474 8123 0
-8123 8124 0
-2475 -8123 0
-2475 8124 0
-8124 8125 0
-2476 -8124 0
-2476 8125 0
-8125 8126 0
-2477 -8125 0
-2477 8126 0
-8126 8127 0
-2478 -8126 0
-2478 8127 0
-8127 8128 0
-2479 -8127 0
-2479 8128 0
-8128 8129 0
-2480 -8128 0
-2480 8129 0
-8129 8130 0
-2481 -8129 0
-2481 8130 0
-8130 8131 0
-2482 -8130 0
-2482 8131 0
-8131 8132 0
-2483 -8131 0
-2483 8132 0
-8132 8133 0
-2484 -8132 0
-2484 8133 0
-8133 8134 0
-2485 -8133 0
-2485 8134 0
-8134 8135 0
-2486 -8134 0
-2486 8135 0
-8135 8136 0
-2487 -8135 0
-2487 8136 0
-8136 8137 0
-2488 -8136 0
-2488 8137 0
-8137 8138 0
-2489 -8137 0
-2489 8138 0
-8138 8139 0
-2490 -8138 0
-2490 8139 0
-8139 8140 0
-2491 -8139 0
-2491 8140 0
-8140 8141 0
-2492 -8140 0
-2492 8141 0
-8141 8142 0
-2493 -8141 0
-2493 8142 0
-8142 8143 0
-2494 -8142 0
-2494 8143 0
-8143 8144 0
-2495 -8143 0
-2495 8144 0
-8144 8145 0
-2496 -8144 0
-2496 8145 0
-8145 8146 0
-2497 -8145 0
-2497 8146 0
-8146 8147 0
-2498 -8146 0
-2498 8147 0
-8147 8148 0
-2499 -8147 0
-2499 8148 0
-8148 8149 0
-2500 -8148 0
-2500 8149 0
-8149 8150 0
-2501 -8149 0
-2501 8150 0
-8150 8151 0
-2502 -8150 0
-2502 8151 0
-8151 8152 0
-2503 -8151 0
-2503 8152 0
-8152 8153 0
-2504 -8152 0
-2504 8153 0
-8153 8154 0
-2505 -8153 0
-2505 8154 0
-8154 8155 0
-2506 -8154 0
-2506 8155 0
-8155 8156 0
-2507 -8155 0
-2507 8156 0
-8156 8157 0
-2508 -8156 0
-2508 8157 0
-8157 8158 0
-2509 -8157 0
-2509 8158 0
-8158 8159 0
-2510 -8158 0
-2510 8159 0
-8159 8160 0
-2511 -8159 0
-2511 8160 0
-8160 8161 0
-2512 -8160 0
-2512 8161 0
-8161 8162 0
-2513 -8161 0
-2513 8162 0
-8162 8163 0
-2514 -8162 0
-2514 8163 0
-8163 8164 0
-2515 -8163 0
-2515 8164 0
-8164 8165 0
-2516 -8164 0
-2516 8165 0
-8165 8166 0
-2517 -8165 0
-2517 8166 0
-8166 8167 0
-2518 -8166 0
-2518 8167 0
-8167 8168 0
-2519 -8167 0
-2519 8168 0
-8168 8169 0
-2520 -8168 0
-2520 8169 0
-8169 8170 0
-2521 -8169 0
-2521 8170 0
-8170 8171 0
-2522 -8170 0
-2522 8171 0
-8171 8172 0
-2523 -8171 0
-2523 8172 0
-8172 8173 0
-2524 -8172 0
-2524 8173 0
-8173 8174 0
-2525 -8173 0
-2525 8174 0
-8174 8175 0
-2526 -8174 0
-2526 8175 0
-8175 8176 0
-2527 -8175 0
-2527 8176 0
-8176 8177 0
-2528 -8176 0
-2528 8177 0
-8177 8178 0
-2529 -8177 0
-2529 8178 0
-8178 8179 0
-2530 -8178 0
-2530 8179 0
-8179 8180 0
-2531 -8179 0
-2531 8180 0
-8180 8181 0
-2532 -8180 0
-2532 8181 0
-8181 8182 0
-2533 -8181 0
-2533 8182 0
-8182 8183 0
-2534 -8182 0
-2534 8183 0
-8183 8184 0
-2535 -8183 0
-2535 8184 0
-8184 8185 0
-2536 -8184 0
-2536 8185 0
-8185 8186 0
-2537 -8185 0
-2537 8186 0
-8186 8187 0
-2538 -8186 0
-2538 8187 0
-8187 8188 0
-2539 -8187 0
-2539 8188 0
-8188 8189 0
-2540 -8188 0
-2540 8189 0
-8189 8190 0
-2541 -8189 0
-2541 8190 0
-8190 8191 0
-2542 -8190 0
-2542 8191 0
-8191 8192 0
-2543 -8191 0
-2543 8192 0
-8192 8193 0
-2544 -8192 0
-2544 8193 0
-8193 8194 0
-2545 -8193 0
-2545 8194 0
-8194 8195 0
-2546 -8194 0
-2546 8195 0
-8195 8196 0
-2547 -8195 0
-2547 8196 0
-8196 8197 0
-2548 -8196 0
-2548 8197 0
-8197 8198 0
-2549 -8197 0
-2549 8198 0
-8198 8199 0
-2550 -8198 0
-2550 8199 0
-8199 8200 0
-2551 -8199 0
-2551 8200 0
-8200 8201 0
-2552 -8200 0
-2552 8201 0
-8201 8202 0
-2553 -8201 0
-2553 8202 0
-8202 8203 0
-2554 -8202 0
-2554 8203 0
-8203 8204 0
-2555 -8203 0
-2555 8204 0
-8204 8205 0
-2556 -8204 0
-2556 8205 0
-8205 8206 0
-2557 -8205 0
-2557 8206 0
-8206 8207 0
-2558 -8206 0
-2558 8207 0
-8207 8208 0
-2559 -8207 0
-2559 8208 0
-8208 8209 0
-2560 -8208 0
-2560 8209 0
-8209 8210 0
-2561 -8209 0
-2561 8210 0
-8210 8211 0
-2562 -8210 0
-2562 8211 0
-8211 8212 0
-2563 -8211 0
-2563 8212 0
-8212 8213 0
-2564 -8212 0
-2564 8213 0
-8213 8214 0
-2565 -8213 0
-2565 8214 0
-8214 8215 0
-2566 -8214 0
-2566 8215 0
-8215 8216 0
-2567 -8215 0
-2567 8216 0
-8216 8217 0
-2568 -8216 0
-2568 8217 0
-8217 8218 0
-2569 -8217 0
-2569 8218 0
-8218 8219 0
-2570 -8218 0
-2570 8219 0
-8219 8220 0
-2571 -8219 0
-2571 8220 0
-8220 8221 0
-2572 -8220 0
-2572 8221 0
-8221 8222 0
-2573 -8221 0
-2573 8222 0
-8222 8223 0
-2574 -8222 0
-2574 8223 0
-8223 8224 0
-2575 -8223 0
-2575 8224 0
-8224 8225 0
-2576 -8224 0
-2576 8225 0
-8225 8226 0
-2577 -8225 0
-2577 8226 0
-8226 8227 0
-2578 -8226 0
-2578 8227 0
-8227 8228 0
-2579 -8227 0
-2579 8228 0
-8228 8229 0
-2580 -8228 0
-2580 8229 0
-8229 8230 0
-2581 -8229 0
-2581 8230 0
-8230 8231 0
-2582 -8230 0
-2582 8231 0
-8231 8232 0
-2583 -8231 0
-2583 8232 0
-8232 8233 0
-2584 -8232 0
-2584 8233 0
-8233 8234 0
-2585 -8233 0
-2585 8234 0
-8234 8235 0
-2586 -8234 0
-2586 8235 0
-8235 8236 0
-2587 -8235 0
-2587 8236 0
-8236 8237 0
-2588 -8236 0
-2588 8237 0
-8237 8238 0
-2589 -8237 0
-2589 8238 0
-8238 8239 0
-2590 -8238 0
-2590 8239 0
-8239 8240 0
-2591 -8239 0
-2591 8240 0
-8240 8241 0
-2592 -8240 0
-2592 8241 0
-8241 8242 0
-2593 -8241 0
-2593 8242 0
-8242 8243 0
-2594 -8242 0
-2594 8243 0
-8243 8244 0
-2595 -8243 0
-2595 8244 0
-8244 8245 0
-2596 -8244 0
-2596 8245 0
-8245 8246 0
-2597 -8245 0
-2597 8246 0
-8246 8247 0
-2598 -8246 0
-2598 8247 0
-8247 8248 0
-2599 -8247 0
-2599 8248 0
-8248 8249 0
-2600 -8248 0
-2600 8249 0
-8249 8250 0
-2601 -8249 0
-2601 8250 0
-8250 8251 0
-2602 -8250 0
-2602 8251 0
-8251 8252 0
-2603 -8251 0
-2603 8252 0
-8252 8253 0
-2604 -8252 0
-2604 8253 0
-8253 8254 0
-2605 -8253 0
-2605 8254 0
-8254 8255 0
-2606 -8254 0
-2606 8255 0
-8255 8256 0
-2607 -8255 0
-2607 8256 0
-8256 8257 0
-2608 -8256 0
-2608 8257 0
-8257 8258 0
-2609 -8257 0
-2609 8258 0
-8258 8259 0
-2610 -8258 0
-2610 8259 0
-8259 8260 0
-2611 -8259 0
-2611 8260 0
-8260 8261 0
-2612 -8260 0
-2612 8261 0
-8261 8262 0
-2613 -8261 0
-2613 8262 0
-8262 8263 0
-2614 -8262 0
-2614 8263 0
-8263 8264 0
-2615 -8263 0
-2615 8264 0
-8264 8265 0
-2616 -8264 0
-2616 8265 0
-8265 8266 0
-2617 -8265 0
-2617 8266 0
-8266 8267 0
-2618 -8266 0
-2618 8267 0
-8267 8268 0
-2619 -8267 0
-2619 8268 0
-8268 8269 0
-2620 -8268 0
-2620 8269 0
-8269 8270 0
-2621 -8269 0
-2621 8270 0
-8270 8271 0
-2622 -8270 0
-2622 8271 0
-8271 8272 0
-2623 -8271 0
-2623 8272 0
-8272 8273 0
-2624 -8272 0
-2624 8273 0
-8273 8274 0
-2625 -8273 0
-2625 8274 0
-8274 8275 0
-2626 -8274 0
-2626 8275 0
-8275 8276 0
-2627 -8275 0
-2627 8276 0
-8276 8277 0
-2628 -8276 0
-2628 8277 0
-8277 8278 0
-2629 -8277 0
-2629 8278 0
-8278 8279 0
-2630 -8278 0
-2630 8279 0
-8279 8280 0
-2631 -8279 0
-2631 8280 0
-8280 8281 0
-2632 -8280 0
-2632 8281 0
-8281 8282 0
-2633 -8281 0
-2633 8282 0
-8282 8283 0
-2634 -8282 0
-2634 8283 0
-8283 8284 0
-2635 -8283 0
-2635 8284 0
-8284 8285 0
-2636 -8284 0
-2636 8285 0
-8285 8286 0
-2637 -8285 0
-2637 8286 0
-8286 8287 0
-2638 -8286 0
-2638 8287 0
-8287 8288 0
-2639 -8287 0
-2639 8288 0
-8288 8289 0
-2640 -8288 0
-2640 8289 0
-8289 8290 0
-2641 -8289 0
-2641 8290 0
-8290 8291 0
-2642 -8290 0
-2642 8291 0
-8291 8292 0
-2643 -8291 0
-2643 8292 0
-8292 8293 0
-2644 -8292 0
-2644 8293 0
-8293 8294 0
-2645 -8293 0
-2645 8294 0
-8294 8295 0
-2646 -8294 0
-2646 8295 0
-8295 8296 0
-2647 -8295 0
-2647 8296 0
-8296 8297 0
-2648 -8296 0
-2648 8297 0
-8297 8298 0
-2649 -8297 0
-2649 8298 0
-8298 8299 0
-2650 -8298 0
-2650 8299 0
-8299 8300 0
-2651 -8299 0
-2651 8300 0
-8300 8301 0
-2652 -8300 0
-2652 8301 0
-8301 8302 0
-2653 -8301 0
-2653 8302 0
-8302 8303 0
-2654 -8302 0
-2654 8303 0
-8303 8304 0
-2655 -8303 0
-2655 8304 0
-8304 8305 0
-2656 -8304 0
-2656 8305 0
-8305 8306 0
-2657 -8305 0
-2657 8306 0
-8306 8307 0
-2658 -8306 0
-2658 8307 0
-8307 8308 0
-2659 -8307 0
-2659 8308 0
-8308 8309 0
-2660 -8308 0
-2660 8309 0
-8309 8310 0
-2661 -8309 0
-2661 8310 0
-8310 8311 0
-2662 -8310 0
-2662 8311 0
-8311 8312 0
-2663 -8311 0
-2663 8312 0
-8312 8313 0
-2664 -8312 0
-2664 8313 0
-8313 8314 0
-2665 -8313 0
-2665 8314 0
-8314 8315 0
-2666 -8314 0
-2666 8315 0
-8315 8316 0
-2667 -8315 0
-2667 8316 0
-8316 8317 0
-2668 -8316 0
-2668 8317 0
-8317 8318 0
-2669 -8317 0
-2669 8318 0
-8318 8319 0
-2670 -8318 0
-2670 8319 0
-8319 8320 0
-2671 -8319 0
-2671 8320 0
-8320 8321 0
-2672 -8320 0
-2672 8321 0
-8321 8322 0
-2673 -8321 0
-2673 8322 0
-8322 8323 0
-2674 -8322 0
-2674 8323 0
-8323 8324 0
-2675 -8323 0
-2675 8324 0
-8324 8325 0
-2676 -8324 0
-2676 8325 0
-8325 8326 0
-2677 -8325 0
-2677 8326 0
-8326 8327 0
-2678 -8326 0
-2678 8327 0
-8327 8328 0
-2679 -8327 0
-2679 8328 0
-8328 8329 0
-2680 -8328 0
-2680 8329 0
-8329 8330 0
-2681 -8329 0
-2681 8330 0
-8330 8331 0
-2682 -8330 0
-2682 8331 0
-8331 8332 0
-2683 -8331 0
-2683 8332 0
-8332 8333 0
-2684 -8332 0
-2684 8333 0
-8333 8334 0
-2685 -8333 0
-2685 8334 0
-8334 8335 0
-2686 -8334 0
-2686 8335 0
-8335 8336 0
-2687 -8335 0
-2687 8336 0
-8336 8337 0
-2688 -8336 0
-2688 8337 0
-8337 8338 0
-2689 -8337 0
-2689 8338 0
-8338 8339 0
-2690 -8338 0
-2690 8339 0
-8339 8340 0
-2691 -8339 0
-2691 8340 0
-8340 8341 0
-2692 -8340 0
-2692 8341 0
-8341 8342 0
-2693 -8341 0
-2693 8342 0
-8342 8343 0
-2694 -8342 0
-2694 8343 0
-8343 8344 0
-2695 -8343 0
-2695 8344 0
-8344 8345 0
-2696 -8344 0
-2696 8345 0
-8345 8346 0
-2697 -8345 0
-2697 8346 0
-8346 8347 0
-2698 -8346 0
-2698 8347 0
-8347 8348 0
-2699 -8347 0
-2699 8348 0
-8348 8349 0
-2700 -8348 0
-2700 8349 0
-8349 8350 0
-2701 -8349 0
-2701 8350 0
-8350 8351 0
-2702 -8350 0
-2702 8351 0
-8351 8352 0
-2703 -8351 0
-2703 8352 0
-8352 8353 0
-2704 -8352 0
-2704 8353 0
-8353 8354 0
-2705 -8353 0
-2705 8354 0
-8354 8355 0
-2706 -8354 0
-2706 8355 0
-8355 8356 0
-2707 -8355 0
-2707 8356 0
-8356 8357 0
-2708 -8356 0
-2708 8357 0
-8357 8358 0
-2709 -8357 0
-2709 8358 0
-8358 8359 0
-2710 -8358 0
-2710 8359 0
-8359 8360 0
-2711 -8359 0
-2711 8360 0
-8360 8361 0
-2712 -8360 0
-2712 8361 0
-8361 8362 0
-2713 -8361 0
-2713 8362 0
-8362 8363 0
-2714 -8362 0
-2714 8363 0
-8363 8364 0
-2715 -8363 0
-2715 8364 0
-8364 8365 0
-2716 -8364 0
-2716 8365 0
-8365 8366 0
-2717 -8365 0
-2717 8366 0
-8366 8367 0
-2718 -8366 0
-2718 8367 0
-8367 8368 0
-2719 -8367 0
-2719 8368 0
-8368 8369 0
-2720 -8368 0
-2720 8369 0
-8369 8370 0
-2721 -8369 0
-2721 8370 0
-8370 8371 0
-2722 -8370 0
-2722 8371 0
-8371 8372 0
-2723 -8371 0
-2723 8372 0
-8372 8373 0
-2724 -8372 0
-2724 8373 0
-8373 8374 0
-2725 -8373 0
-2725 8374 0
-8374 8375 0
-2726 -8374 0
-2726 8375 0
-8375 8376 0
-2727 -8375 0
-2727 8376 0
-8376 8377 0
-2728 -8376 0
-2728 8377 0
-8377 8378 0
-2729 -8377 0
-2729 8378 0
-8378 8379 0
-2730 -8378 0
-2730 8379 0
-8379 8380 0
-2731 -8379 0
-2731 8380 0
-8380 8381 0
-2732 -8380 0
-2732 8381 0
-8381 8382 0
-2733 -8381 0
-2733 8382 0
-8382 8383 0
-2734 -8382 0
-2734 8383 0
-8383 8384 0
-2735 -8383 0
-2735 8384 0
-8384 8385 0
-2736 -8384 0
-2736 8385 0
-8385 8386 0
-2737 -8385 0
-2737 8386 0
-8386 8387 0
-2738 -8386 0
-2738 8387 0
-8387 8388 0
-2739 -8387 0
-2739 8388 0
-8388 8389 0
-2740 -8388 0
-2740 8389 0
-8389 8390 0
-2741 -8389 0
-2741 8390 0
-8390 8391 0
-2742 -8390 0
-2742 8391 0
-8391 8392 0
-2743 -8391 0
-2743 8392 0
-8392 8393 0
-2744 -8392 0
-2744 8393 0
-8393 8394 0
-2745 -8393 0
-2745 8394 0
-8394 8395 0
-2746 -8394 0
-2746 8395 0
-8395 8396 0
-2747 -8395 0
-2747 8396 0
-8396 8397 0
-2748 -8396 0
-2748 8397 0
-8397 8398 0
-2749 -8397 0
-2749 8398 0
-8398 8399 0
-2750 -8398 0
-2750 8399 0
-8399 8400 0
-2751 -8399 0
-2751 8400 0
-8400 8401 0
-2752 -8400 0
-2752 8401 0
-8401 8402 0
-2753 -8401 0
-2753 8402 0
-8402 8403 0
-2754 -8402 0
-2754 8403 0
-8403 8404 0
-2755 -8403 0
-2755 8404 0
-8404 8405 0
-2756 -8404 0
-2756 8405 0
-8405 8406 0
-2757 -8405 0
-2757 8406 0
-8406 8407 0
-2758 -8406 0
-2758 8407 0
-8407 8408 0
-2759 -8407 0
-2759 8408 0
-8408 8409 0
-2760 -8408 0
-2760 8409 0
-8409 8410 0
-2761 -8409 0
-2761 8410 0
-8410 8411 0
-2762 -8410 0
-2762 8411 0
-8411 8412 0
-2763 -8411 0
-2763 8412 0
-8412 8413 0
-2764 -8412 0
-2764 8413 0
-8413 8414 0
-2765 -8413 0
-2765 8414 0
-8414 8415 0
-2766 -8414 0
-2766 8415 0
-8415 8416 0
-2767 -8415 0
-2767 8416 0
-8416 8417 0
-2768 -8416 0
-2768 8417 0
-8417 8418 0
-2769 -8417 0
-2769 8418 0
-8418 8419 0
-2770 -8418 0
-2770 8419 0
-8419 8420 0
-2771 -8419 0
-2771 8420 0
-8420 8421 0
-2772 -8420 0
-2772 8421 0
-8421 8422 0
-2773 -8421 0
-2773 8422 0
-8422 8423 0
-2774 -8422 0
-2774 8423 0
-8423 8424 0
-2775 -8423 0
-2775 8424 0
-8424 8425 0
-2776 -8424 0
-2776 8425 0
-8425 8426 0
-2777 -8425 0
-2777 8426 0
-8426 8427 0
-2778 -8426 0
-2778 8427 0
-8427 8428 0
-2779 -8427 0
-2779 8428 0
-8428 8429 0
-2780 -8428 0
-2780 8429 0
-8429 8430 0
-2781 -8429 0
-2781 8430 0
-8430 8431 0
-2782 -8430 0
-2782 8431 0
-8431 8432 0
-2783 -8431 0
-2783 8432 0
-8432 8433 0
-2784 -8432 0
-2784 8433 0
-8433 8434 0
-2785 -8433 0
-2785 8434 0
-8434 8435 0
-2786 -8434 0
-2786 8435 0
-8435 8436 0
-2787 -8435 0
-2787 8436 0
-8436 8437 0
-2788 -8436 0
-2788 8437 0
-8437 8438 0
-2789 -8437 0
-2789 8438 0
-8438 8439 0
-2790 -8438 0
-2790 8439 0
-8439 8440 0
-2791 -8439 0
-2791 8440 0
-8440 8441 0
-2792 -8440 0
-2792 8441 0
-8441 8442 0
-2793 -8441 0
-2793 8442 0
-8442 8443 0
-2794 -8442 0
-2794 8443 0
-8443 8444 0
-2795 -8443 0
-2795 8444 0
-8444 8445 0
-2796 -8444 0
-2796 8445 0
-8445 8446 0
-2797 -8445 0
-2797 8446 0
-8446 8447 0
-2798 -8446 0
-2798 8447 0
-8447 8448 0
-2799 -8447 0
-2799 8448 0
-8448 8449 0
-2800 -8448 0
-2800 8449 0
-8449 8450 0
-2801 -8449 0
-2801 8450 0
-8450 8451 0
-2802 -8450 0
-2802 8451 0
-8451 8452 0
-2803 -8451 0
-2803 8452 0
-8452 8453 0
-2804 -8452 0
-2804 8453 0
-8453 8454 0
-2805 -8453 0
-2805 8454 0
-8454 8455 0
-2806 -8454 0
-2806 8455 0
-8455 8456 0
-2807 -8455 0
-2807 8456 0
-8456 8457 0
-2808 -8456 0
-2808 8457 0
-8457 8458 0
-2809 -8457 0
-2809 8458 0
-8458 8459 0
-2810 -8458 0
-2810 8459 0
-8459 8460 0
-2811 -8459 0
-2811 8460 0
-8460 8461 0
-2812 -8460 0
-2812 8461 0
-8461 8462 0
-2813 -8461 0
-2813 8462 0
-8462 8463 0
-2814 -8462 0
-2814 8463 0
-8463 8464 0
-2815 -8463 0
-2815 8464 0
-8464 8465 0
-2816 -8464 0
-2816 8465 0
-8465 8466 0
-2817 -8465 0
-2817 8466 0
-8466 8467 0
-2818 -8466 0
-2818 8467 0
-8467 8468 0
-2819 -8467 0
-2819 8468 0
-8468 8469 0
-2820 -8468 0
-2820 8469 0
-8469 8470 0
-2821 -8469 0
-2821 8470 0
-8470 8471 0
-2822 -8470 0
-2822 8471 0
-8471 8472 0
-2823 -8471 0
-2823 8472 0
-8472 8473 0
-2824 -8472 0
-2824 8473 0
-8473 8474 0
-2825 -8473 0
-2825 8474 0
-8474 8475 0
-2826 -8474 0
-2826 8475 0
-8475 8476 0
-2827 -8475 0
-2827 8476 0
-8476 8477 0
-2828 -8476 0
-2828 8477 0
-8477 8478 0
-2829 -8477 0
-2829 8478 0
-8478 8479 0
-2830 -8478 0
-2830 8479 0
-8479 8480 0
-2831 -8479 0
-2831 8480 0
-8480 8481 0
-2832 -8480 0
-2832 8481 0
-8481 8482 0
-2833 -8481 0
-2833 8482 0
-8482 8483 0
-2834 -8482 0
-2834 8483 0
-2835 -8483 0
-2 0
-3 0
-2 0
-3 0
-7 0
-8 0
